ODB Name,Step,Frame,Part Instance Name,    Node Label,X,Y,Z,Section Name,Material Name,Section Point,   COORD-COOR1,   COORD-COOR2,   COORD-COOR3,          U-U1,       S-Mises
C:/ALETube/PressureUpdate/LargeStep/DeformErode/JobErode.odb,Step-1,Increment      0: Step Time =,    0.000,"TUBE-1",            39,   5.87785E-03,   8.09017E-03,            0.,NA,NA,"",  10.00000E-03,   867.362E-21,            0.,            0.,            0.
C:/ALETube/PressureUpdate/LargeStep/DeformErode/JobErode.odb,Step-1,Increment      0: Step Time =,    0.000,"TUBE-1",             5,   7.07107E-03,   7.07107E-03,            0.,NA,NA,"",  10.00000E-03,            0.,            0.,            0.,            0.
C:/ALETube/PressureUpdate/LargeStep/DeformErode/JobErode.odb,Step-1,Increment      0: Step Time =,    0.000,"TUBE-1",           203,   5.87785E-03,   8.09017E-03,   12.5000E-03,NA,NA,"",  10.00000E-03,   867.362E-21,   12.5000E-03,            0.,            0.
C:/ALETube/PressureUpdate/LargeStep/DeformErode/JobErode.odb,Step-1,Increment      0: Step Time =,    0.000,"TUBE-1",           169,   7.07107E-03,   7.07107E-03,   12.5000E-03,NA,NA,"",  10.00000E-03,            0.,   12.5000E-03,            0.,            0.
C:/ALETube/PressureUpdate/LargeStep/DeformErode/JobErode.odb,Step-1,Increment      0: Step Time =,    0.000,"TUBE-1",           333,   7.07107E-03,   7.07107E-03,   25.0000E-03,NA,NA,"",  10.00000E-03,            0.,   25.0000E-03,            0.,            0.
C:/ALETube/PressureUpdate/LargeStep/DeformErode/JobErode.odb,Step-1,Increment      0: Step Time =,    0.000,"TUBE-1",           367,   5.87785E-03,   8.09017E-03,   25.0000E-03,NA,NA,"",  10.00000E-03,   867.362E-21,   25.0000E-03,            0.,            0.
C:/ALETube/PressureUpdate/LargeStep/DeformErode/JobErode.odb,Step-1,Increment      0: Step Time =,    0.000,"TUBE-1",           531,   5.87785E-03,   8.09017E-03,   37.5000E-03,NA,NA,"",  10.00000E-03,   867.362E-21,   37.5000E-03,            0.,            0.
C:/ALETube/PressureUpdate/LargeStep/DeformErode/JobErode.odb,Step-1,Increment      0: Step Time =,    0.000,"TUBE-1",           497,   7.07107E-03,   7.07107E-03,   37.5000E-03,NA,NA,"",  10.00000E-03,            0.,   37.5000E-03,            0.,            0.
C:/ALETube/PressureUpdate/LargeStep/DeformErode/JobErode.odb,Step-1,Increment      0: Step Time =,    0.000,"TUBE-1",           695,   5.87785E-03,   8.09017E-03,   50.0000E-03,NA,NA,"",  10.00000E-03,   867.362E-21,   50.0000E-03,            0.,            0.
C:/ALETube/PressureUpdate/LargeStep/DeformErode/JobErode.odb,Step-1,Increment      0: Step Time =,    0.000,"TUBE-1",           661,   7.07107E-03,   7.07107E-03,   50.0000E-03,NA,NA,"",  10.00000E-03,            0.,   50.0000E-03,            0.,            0.
C:/ALETube/PressureUpdate/LargeStep/DeformErode/JobErode.odb,Step-1,Increment      0: Step Time =,    0.000,"TUBE-1",           825,   7.07107E-03,   7.07107E-03,      62.5E-03,NA,NA,"",  10.00000E-03,            0.,      62.5E-03,            0.,            0.
C:/ALETube/PressureUpdate/LargeStep/DeformErode/JobErode.odb,Step-1,Increment      0: Step Time =,    0.000,"TUBE-1",           859,   5.87785E-03,   8.09017E-03,      62.5E-03,NA,NA,"",  10.00000E-03,   867.362E-21,      62.5E-03,            0.,            0.
C:/ALETube/PressureUpdate/LargeStep/DeformErode/JobErode.odb,Step-1,Increment      0: Step Time =,    0.000,"TUBE-1",          1023,   5.87785E-03,   8.09017E-03,   75.0000E-03,NA,NA,"",  10.00000E-03,   867.362E-21,   75.0000E-03,            0.,            0.
C:/ALETube/PressureUpdate/LargeStep/DeformErode/JobErode.odb,Step-1,Increment      0: Step Time =,    0.000,"TUBE-1",           989,   7.07107E-03,   7.07107E-03,   75.0000E-03,NA,NA,"",  10.00000E-03,            0.,   75.0000E-03,            0.,            0.
C:/ALETube/PressureUpdate/LargeStep/DeformErode/JobErode.odb,Step-1,Increment      0: Step Time =,    0.000,"TUBE-1",          1187,   5.87785E-03,   8.09017E-03,   87.5000E-03,NA,NA,"",  10.00000E-03,   867.362E-21,   87.5000E-03,            0.,            0.
C:/ALETube/PressureUpdate/LargeStep/DeformErode/JobErode.odb,Step-1,Increment      0: Step Time =,    0.000,"TUBE-1",          1153,   7.07107E-03,   7.07107E-03,   87.5000E-03,NA,NA,"",  10.00000E-03,            0.,   87.5000E-03,            0.,            0.
C:/ALETube/PressureUpdate/LargeStep/DeformErode/JobErode.odb,Step-1,Increment      0: Step Time =,    0.000,"TUBE-1",          1351,   5.87785E-03,   8.09017E-03,   100.000E-03,NA,NA,"",  10.00000E-03,   867.362E-21,   100.000E-03,            0.,            0.
C:/ALETube/PressureUpdate/LargeStep/DeformErode/JobErode.odb,Step-1,Increment      0: Step Time =,    0.000,"TUBE-1",          1317,   7.07107E-03,   7.07107E-03,   100.000E-03,NA,NA,"",  10.00000E-03,            0.,   100.000E-03,            0.,            0.
C:/ALETube/PressureUpdate/LargeStep/DeformErode/JobErode.odb,Step-1,Increment      0: Step Time =,    0.000,"TUBE-1",          1515,   5.87785E-03,   8.09017E-03,   112.500E-03,NA,NA,"",  10.00000E-03,   867.362E-21,   112.500E-03,            0.,            0.
C:/ALETube/PressureUpdate/LargeStep/DeformErode/JobErode.odb,Step-1,Increment      0: Step Time =,    0.000,"TUBE-1",          1481,   7.07107E-03,   7.07107E-03,   112.500E-03,NA,NA,"",  10.00000E-03,            0.,   112.500E-03,            0.,            0.
C:/ALETube/PressureUpdate/LargeStep/DeformErode/JobErode.odb,Step-1,Increment      0: Step Time =,    0.000,"TUBE-1",          1645,   7.07107E-03,   7.07107E-03,      125.E-03,NA,NA,"",  10.00000E-03,            0.,      125.E-03,            0.,            0.
C:/ALETube/PressureUpdate/LargeStep/DeformErode/JobErode.odb,Step-1,Increment      0: Step Time =,    0.000,"TUBE-1",          1679,   5.87785E-03,   8.09017E-03,      125.E-03,NA,NA,"",  10.00000E-03,   867.362E-21,      125.E-03,            0.,            0.
C:/ALETube/PressureUpdate/LargeStep/DeformErode/JobErode.odb,Step-1,Increment      0: Step Time =,    0.000,"TUBE-1",          1843,   5.87785E-03,   8.09017E-03,   137.500E-03,NA,NA,"",  10.00000E-03,   867.362E-21,   137.500E-03,            0.,            0.
C:/ALETube/PressureUpdate/LargeStep/DeformErode/JobErode.odb,Step-1,Increment      0: Step Time =,    0.000,"TUBE-1",          1809,   7.07107E-03,   7.07107E-03,   137.500E-03,NA,NA,"",  10.00000E-03,            0.,   137.500E-03,            0.,            0.
C:/ALETube/PressureUpdate/LargeStep/DeformErode/JobErode.odb,Step-1,Increment      0: Step Time =,    0.000,"TUBE-1",          2007,   5.87785E-03,   8.09017E-03,   150.000E-03,NA,NA,"",  10.00000E-03,   867.362E-21,   150.000E-03,            0.,            0.
C:/ALETube/PressureUpdate/LargeStep/DeformErode/JobErode.odb,Step-1,Increment      0: Step Time =,    0.000,"TUBE-1",          1973,   7.07107E-03,   7.07107E-03,   150.000E-03,NA,NA,"",  10.00000E-03,            0.,   150.000E-03,            0.,            0.
C:/ALETube/PressureUpdate/LargeStep/DeformErode/JobErode.odb,Step-1,Increment      0: Step Time =,    0.000,"TUBE-1",          2171,   5.87785E-03,   8.09017E-03,   162.500E-03,NA,NA,"",  10.00000E-03,   867.362E-21,   162.500E-03,            0.,            0.
C:/ALETube/PressureUpdate/LargeStep/DeformErode/JobErode.odb,Step-1,Increment      0: Step Time =,    0.000,"TUBE-1",          2137,   7.07107E-03,   7.07107E-03,   162.500E-03,NA,NA,"",  10.00000E-03,            0.,   162.500E-03,            0.,            0.
C:/ALETube/PressureUpdate/LargeStep/DeformErode/JobErode.odb,Step-1,Increment      0: Step Time =,    0.000,"TUBE-1",          2335,   5.87785E-03,   8.09017E-03,   175.000E-03,NA,NA,"",  10.00000E-03,   867.362E-21,   175.000E-03,            0.,            0.
C:/ALETube/PressureUpdate/LargeStep/DeformErode/JobErode.odb,Step-1,Increment      0: Step Time =,    0.000,"TUBE-1",          2301,   7.07107E-03,   7.07107E-03,   175.000E-03,NA,NA,"",  10.00000E-03,            0.,   175.000E-03,            0.,            0.
C:/ALETube/PressureUpdate/LargeStep/DeformErode/JobErode.odb,Step-1,Increment      0: Step Time =,    0.000,"TUBE-1",          2465,   7.07107E-03,   7.07107E-03,     187.5E-03,NA,NA,"",  10.00000E-03,            0.,     187.5E-03,            0.,            0.
C:/ALETube/PressureUpdate/LargeStep/DeformErode/JobErode.odb,Step-1,Increment      0: Step Time =,    0.000,"TUBE-1",          2499,   5.87785E-03,   8.09017E-03,     187.5E-03,NA,NA,"",  10.00000E-03,   867.362E-21,     187.5E-03,            0.,            0.
C:/ALETube/PressureUpdate/LargeStep/DeformErode/JobErode.odb,Step-1,Increment      0: Step Time =,    0.000,"TUBE-1",          2663,   5.87785E-03,   8.09017E-03,   200.000E-03,NA,NA,"",  10.00000E-03,   867.362E-21,   200.000E-03,            0.,            0.
C:/ALETube/PressureUpdate/LargeStep/DeformErode/JobErode.odb,Step-1,Increment      0: Step Time =,    0.000,"TUBE-1",          2629,   7.07107E-03,   7.07107E-03,   200.000E-03,NA,NA,"",  10.00000E-03,            0.,   200.000E-03,            0.,            0.
C:/ALETube/PressureUpdate/LargeStep/DeformErode/JobErode.odb,Step-1,Increment      0: Step Time =,    0.000,"TUBE-1",          2827,   5.87785E-03,   8.09017E-03,   212.500E-03,NA,NA,"",  10.00000E-03,   867.362E-21,   212.500E-03,            0.,            0.
C:/ALETube/PressureUpdate/LargeStep/DeformErode/JobErode.odb,Step-1,Increment      0: Step Time =,    0.000,"TUBE-1",          2793,   7.07107E-03,   7.07107E-03,   212.500E-03,NA,NA,"",  10.00000E-03,            0.,   212.500E-03,            0.,            0.
C:/ALETube/PressureUpdate/LargeStep/DeformErode/JobErode.odb,Step-1,Increment      0: Step Time =,    0.000,"TUBE-1",          2991,   5.87785E-03,   8.09017E-03,   225.000E-03,NA,NA,"",  10.00000E-03,   867.362E-21,   225.000E-03,            0.,            0.
C:/ALETube/PressureUpdate/LargeStep/DeformErode/JobErode.odb,Step-1,Increment      0: Step Time =,    0.000,"TUBE-1",          2957,   7.07107E-03,   7.07107E-03,   225.000E-03,NA,NA,"",  10.00000E-03,            0.,   225.000E-03,            0.,            0.
C:/ALETube/PressureUpdate/LargeStep/DeformErode/JobErode.odb,Step-1,Increment      0: Step Time =,    0.000,"TUBE-1",          3155,   5.87785E-03,   8.09017E-03,   237.500E-03,NA,NA,"",  10.00000E-03,   867.362E-21,   237.500E-03,            0.,            0.
C:/ALETube/PressureUpdate/LargeStep/DeformErode/JobErode.odb,Step-1,Increment      0: Step Time =,    0.000,"TUBE-1",          3121,   7.07107E-03,   7.07107E-03,   237.500E-03,NA,NA,"",  10.00000E-03,            0.,   237.500E-03,            0.,            0.
C:/ALETube/PressureUpdate/LargeStep/DeformErode/JobErode.odb,Step-1,Increment      0: Step Time =,    0.000,"TUBE-1",          3285,   7.07107E-03,   7.07107E-03,      250.E-03,NA,NA,"",  10.00000E-03,            0.,      250.E-03,            0.,            0.
C:/ALETube/PressureUpdate/LargeStep/DeformErode/JobErode.odb,Step-1,Increment      0: Step Time =,    0.000,"TUBE-1",          3319,   5.87785E-03,   8.09017E-03,      250.E-03,NA,NA,"",  10.00000E-03,   867.362E-21,      250.E-03,            0.,            0.
C:/ALETube/PressureUpdate/LargeStep/DeformErode/JobErode.odb,Step-1,Increment      0: Step Time =,    0.000,"TUBE-1",          3483,   5.87785E-03,   8.09017E-03,   262.500E-03,NA,NA,"",  10.00000E-03,   867.362E-21,   262.500E-03,            0.,            0.
C:/ALETube/PressureUpdate/LargeStep/DeformErode/JobErode.odb,Step-1,Increment      0: Step Time =,    0.000,"TUBE-1",          3449,   7.07107E-03,   7.07107E-03,   262.500E-03,NA,NA,"",  10.00000E-03,            0.,   262.500E-03,            0.,            0.
C:/ALETube/PressureUpdate/LargeStep/DeformErode/JobErode.odb,Step-1,Increment      0: Step Time =,    0.000,"TUBE-1",          3647,   5.87785E-03,   8.09017E-03,   275.000E-03,NA,NA,"",  10.00000E-03,   867.362E-21,   275.000E-03,            0.,            0.
C:/ALETube/PressureUpdate/LargeStep/DeformErode/JobErode.odb,Step-1,Increment      0: Step Time =,    0.000,"TUBE-1",          3613,   7.07107E-03,   7.07107E-03,   275.000E-03,NA,NA,"",  10.00000E-03,            0.,   275.000E-03,            0.,            0.
C:/ALETube/PressureUpdate/LargeStep/DeformErode/JobErode.odb,Step-1,Increment      0: Step Time =,    0.000,"TUBE-1",          3811,   5.87785E-03,   8.09017E-03,   287.500E-03,NA,NA,"",  10.00000E-03,   867.362E-21,   287.500E-03,            0.,            0.
C:/ALETube/PressureUpdate/LargeStep/DeformErode/JobErode.odb,Step-1,Increment      0: Step Time =,    0.000,"TUBE-1",          3777,   7.07107E-03,   7.07107E-03,   287.500E-03,NA,NA,"",  10.00000E-03,            0.,   287.500E-03,            0.,            0.
C:/ALETube/PressureUpdate/LargeStep/DeformErode/JobErode.odb,Step-1,Increment      0: Step Time =,    0.000,"TUBE-1",          3975,   5.87785E-03,   8.09017E-03,   300.000E-03,NA,NA,"",  10.00000E-03,   867.362E-21,   300.000E-03,            0.,            0.
C:/ALETube/PressureUpdate/LargeStep/DeformErode/JobErode.odb,Step-1,Increment      0: Step Time =,    0.000,"TUBE-1",          3941,   7.07107E-03,   7.07107E-03,   300.000E-03,NA,NA,"",  10.00000E-03,            0.,   300.000E-03,            0.,            0.
C:/ALETube/PressureUpdate/LargeStep/DeformErode/JobErode.odb,Step-1,Increment      0: Step Time =,    0.000,"TUBE-1",          4105,   7.07107E-03,   7.07107E-03,     312.5E-03,NA,NA,"",  10.00000E-03,            0.,     312.5E-03,            0.,            0.
C:/ALETube/PressureUpdate/LargeStep/DeformErode/JobErode.odb,Step-1,Increment      0: Step Time =,    0.000,"TUBE-1",          4139,   5.87785E-03,   8.09017E-03,     312.5E-03,NA,NA,"",  10.00000E-03,   867.362E-21,     312.5E-03,            0.,            0.
C:/ALETube/PressureUpdate/LargeStep/DeformErode/JobErode.odb,Step-1,Increment      0: Step Time =,    0.000,"TUBE-1",          4303,   5.87785E-03,   8.09017E-03,   325.000E-03,NA,NA,"",  10.00000E-03,   867.362E-21,   325.000E-03,            0.,            0.
C:/ALETube/PressureUpdate/LargeStep/DeformErode/JobErode.odb,Step-1,Increment      0: Step Time =,    0.000,"TUBE-1",          4269,   7.07107E-03,   7.07107E-03,   325.000E-03,NA,NA,"",  10.00000E-03,            0.,   325.000E-03,            0.,            0.
C:/ALETube/PressureUpdate/LargeStep/DeformErode/JobErode.odb,Step-1,Increment      0: Step Time =,    0.000,"TUBE-1",          4467,   5.87785E-03,   8.09017E-03,   337.500E-03,NA,NA,"",  10.00000E-03,   867.362E-21,   337.500E-03,            0.,            0.
C:/ALETube/PressureUpdate/LargeStep/DeformErode/JobErode.odb,Step-1,Increment      0: Step Time =,    0.000,"TUBE-1",          4433,   7.07107E-03,   7.07107E-03,   337.500E-03,NA,NA,"",  10.00000E-03,            0.,   337.500E-03,            0.,            0.
C:/ALETube/PressureUpdate/LargeStep/DeformErode/JobErode.odb,Step-1,Increment      0: Step Time =,    0.000,"TUBE-1",          4631,   5.87785E-03,   8.09017E-03,   350.000E-03,NA,NA,"",  10.00000E-03,   867.362E-21,   350.000E-03,            0.,            0.
C:/ALETube/PressureUpdate/LargeStep/DeformErode/JobErode.odb,Step-1,Increment      0: Step Time =,    0.000,"TUBE-1",          4597,   7.07107E-03,   7.07107E-03,   350.000E-03,NA,NA,"",  10.00000E-03,            0.,   350.000E-03,            0.,            0.
C:/ALETube/PressureUpdate/LargeStep/DeformErode/JobErode.odb,Step-1,Increment      0: Step Time =,    0.000,"TUBE-1",          4795,   5.87785E-03,   8.09017E-03,   362.500E-03,NA,NA,"",  10.00000E-03,   867.362E-21,   362.500E-03,            0.,            0.
C:/ALETube/PressureUpdate/LargeStep/DeformErode/JobErode.odb,Step-1,Increment      0: Step Time =,    0.000,"TUBE-1",          4761,   7.07107E-03,   7.07107E-03,   362.500E-03,NA,NA,"",  10.00000E-03,            0.,   362.500E-03,            0.,            0.
C:/ALETube/PressureUpdate/LargeStep/DeformErode/JobErode.odb,Step-1,Increment      0: Step Time =,    0.000,"TUBE-1",          4925,   7.07107E-03,   7.07107E-03,      375.E-03,NA,NA,"",  10.00000E-03,            0.,      375.E-03,            0.,            0.
C:/ALETube/PressureUpdate/LargeStep/DeformErode/JobErode.odb,Step-1,Increment      0: Step Time =,    0.000,"TUBE-1",          4959,   5.87785E-03,   8.09017E-03,      375.E-03,NA,NA,"",  10.00000E-03,   867.362E-21,      375.E-03,            0.,            0.
C:/ALETube/PressureUpdate/LargeStep/DeformErode/JobErode.odb,Step-1,Increment      0: Step Time =,    0.000,"TUBE-1",          5123,   5.87785E-03,   8.09017E-03,   387.500E-03,NA,NA,"",  10.00000E-03,   867.362E-21,   387.500E-03,            0.,            0.
C:/ALETube/PressureUpdate/LargeStep/DeformErode/JobErode.odb,Step-1,Increment      0: Step Time =,    0.000,"TUBE-1",          5089,   7.07107E-03,   7.07107E-03,   387.500E-03,NA,NA,"",  10.00000E-03,            0.,   387.500E-03,            0.,            0.
C:/ALETube/PressureUpdate/LargeStep/DeformErode/JobErode.odb,Step-1,Increment      0: Step Time =,    0.000,"TUBE-1",          5287,   5.87785E-03,   8.09017E-03,   400.000E-03,NA,NA,"",  10.00000E-03,   867.362E-21,   400.000E-03,            0.,            0.
C:/ALETube/PressureUpdate/LargeStep/DeformErode/JobErode.odb,Step-1,Increment      0: Step Time =,    0.000,"TUBE-1",          5253,   7.07107E-03,   7.07107E-03,   400.000E-03,NA,NA,"",  10.00000E-03,            0.,   400.000E-03,            0.,            0.
C:/ALETube/PressureUpdate/LargeStep/DeformErode/JobErode.odb,Step-1,Increment      0: Step Time =,    0.000,"TUBE-1",          5451,   5.87785E-03,   8.09017E-03,   412.500E-03,NA,NA,"",  10.00000E-03,   867.362E-21,   412.500E-03,            0.,            0.
C:/ALETube/PressureUpdate/LargeStep/DeformErode/JobErode.odb,Step-1,Increment      0: Step Time =,    0.000,"TUBE-1",          5417,   7.07107E-03,   7.07107E-03,   412.500E-03,NA,NA,"",  10.00000E-03,            0.,   412.500E-03,            0.,            0.
C:/ALETube/PressureUpdate/LargeStep/DeformErode/JobErode.odb,Step-1,Increment      0: Step Time =,    0.000,"TUBE-1",          5615,   5.87785E-03,   8.09017E-03,   425.000E-03,NA,NA,"",  10.00000E-03,   867.362E-21,   425.000E-03,            0.,            0.
C:/ALETube/PressureUpdate/LargeStep/DeformErode/JobErode.odb,Step-1,Increment      0: Step Time =,    0.000,"TUBE-1",          5581,   7.07107E-03,   7.07107E-03,   425.000E-03,NA,NA,"",  10.00000E-03,            0.,   425.000E-03,            0.,            0.
C:/ALETube/PressureUpdate/LargeStep/DeformErode/JobErode.odb,Step-1,Increment      0: Step Time =,    0.000,"TUBE-1",          5745,   7.07107E-03,   7.07107E-03,     437.5E-03,NA,NA,"",  10.00000E-03,            0.,     437.5E-03,            0.,            0.
C:/ALETube/PressureUpdate/LargeStep/DeformErode/JobErode.odb,Step-1,Increment      0: Step Time =,    0.000,"TUBE-1",          5779,   5.87785E-03,   8.09017E-03,     437.5E-03,NA,NA,"",  10.00000E-03,   867.362E-21,     437.5E-03,            0.,            0.
C:/ALETube/PressureUpdate/LargeStep/DeformErode/JobErode.odb,Step-1,Increment      0: Step Time =,    0.000,"TUBE-1",          5943,   5.87785E-03,   8.09017E-03,   450.000E-03,NA,NA,"",  10.00000E-03,   867.362E-21,   450.000E-03,            0.,            0.
C:/ALETube/PressureUpdate/LargeStep/DeformErode/JobErode.odb,Step-1,Increment      0: Step Time =,    0.000,"TUBE-1",          5909,   7.07107E-03,   7.07107E-03,   450.000E-03,NA,NA,"",  10.00000E-03,            0.,   450.000E-03,            0.,            0.
C:/ALETube/PressureUpdate/LargeStep/DeformErode/JobErode.odb,Step-1,Increment      0: Step Time =,    0.000,"TUBE-1",          6107,   5.87785E-03,   8.09017E-03,   462.500E-03,NA,NA,"",  10.00000E-03,   867.362E-21,   462.500E-03,            0.,            0.
C:/ALETube/PressureUpdate/LargeStep/DeformErode/JobErode.odb,Step-1,Increment      0: Step Time =,    0.000,"TUBE-1",          6073,   7.07107E-03,   7.07107E-03,   462.500E-03,NA,NA,"",  10.00000E-03,            0.,   462.500E-03,            0.,            0.
C:/ALETube/PressureUpdate/LargeStep/DeformErode/JobErode.odb,Step-1,Increment      0: Step Time =,    0.000,"TUBE-1",          6271,   5.87785E-03,   8.09017E-03,   475.000E-03,NA,NA,"",  10.00000E-03,   867.362E-21,   475.000E-03,            0.,            0.
C:/ALETube/PressureUpdate/LargeStep/DeformErode/JobErode.odb,Step-1,Increment      0: Step Time =,    0.000,"TUBE-1",          6237,   7.07107E-03,   7.07107E-03,   475.000E-03,NA,NA,"",  10.00000E-03,            0.,   475.000E-03,            0.,            0.
C:/ALETube/PressureUpdate/LargeStep/DeformErode/JobErode.odb,Step-1,Increment      0: Step Time =,    0.000,"TUBE-1",          6435,   5.87785E-03,   8.09017E-03,   487.500E-03,NA,NA,"",  10.00000E-03,   867.362E-21,   487.500E-03,            0.,            0.
C:/ALETube/PressureUpdate/LargeStep/DeformErode/JobErode.odb,Step-1,Increment      0: Step Time =,    0.000,"TUBE-1",          6401,   7.07107E-03,   7.07107E-03,   487.500E-03,NA,NA,"",  10.00000E-03,            0.,   487.500E-03,            0.,            0.
C:/ALETube/PressureUpdate/LargeStep/DeformErode/JobErode.odb,Step-1,Increment      0: Step Time =,    0.000,"TUBE-1",          6565,   7.07107E-03,   7.07107E-03,      500.E-03,NA,NA,"",  10.00000E-03,            0.,      500.E-03,            0.,            0.
C:/ALETube/PressureUpdate/LargeStep/DeformErode/JobErode.odb,Step-1,Increment      0: Step Time =,    0.000,"TUBE-1",          6599,   5.87785E-03,   8.09017E-03,      500.E-03,NA,NA,"",  10.00000E-03,   867.362E-21,      500.E-03,            0.,            0.
C:/ALETube/PressureUpdate/LargeStep/DeformErode/JobErode.odb,Step-1,Increment      0: Step Time =,    0.000,"TUBE-1",          6763,   5.87785E-03,   8.09017E-03,   512.500E-03,NA,NA,"",  10.00000E-03,   867.362E-21,   512.500E-03,            0.,            0.
C:/ALETube/PressureUpdate/LargeStep/DeformErode/JobErode.odb,Step-1,Increment      0: Step Time =,    0.000,"TUBE-1",          6729,   7.07107E-03,   7.07107E-03,   512.500E-03,NA,NA,"",  10.00000E-03,            0.,   512.500E-03,            0.,            0.
C:/ALETube/PressureUpdate/LargeStep/DeformErode/JobErode.odb,Step-1,Increment      0: Step Time =,    0.000,"TUBE-1",          6927,   5.87785E-03,   8.09017E-03,   525.000E-03,NA,NA,"",  10.00000E-03,   867.362E-21,   525.000E-03,            0.,            0.
C:/ALETube/PressureUpdate/LargeStep/DeformErode/JobErode.odb,Step-1,Increment      0: Step Time =,    0.000,"TUBE-1",          6893,   7.07107E-03,   7.07107E-03,   525.000E-03,NA,NA,"",  10.00000E-03,            0.,   525.000E-03,            0.,            0.
C:/ALETube/PressureUpdate/LargeStep/DeformErode/JobErode.odb,Step-1,Increment      0: Step Time =,    0.000,"TUBE-1",          7091,   5.87785E-03,   8.09017E-03,   537.500E-03,NA,NA,"",  10.00000E-03,   867.362E-21,   537.500E-03,            0.,            0.
C:/ALETube/PressureUpdate/LargeStep/DeformErode/JobErode.odb,Step-1,Increment      0: Step Time =,    0.000,"TUBE-1",          7057,   7.07107E-03,   7.07107E-03,   537.500E-03,NA,NA,"",  10.00000E-03,            0.,   537.500E-03,            0.,            0.
C:/ALETube/PressureUpdate/LargeStep/DeformErode/JobErode.odb,Step-1,Increment      0: Step Time =,    0.000,"TUBE-1",          7255,   5.87785E-03,   8.09017E-03,   550.000E-03,NA,NA,"",  10.00000E-03,   867.362E-21,   550.000E-03,            0.,            0.
C:/ALETube/PressureUpdate/LargeStep/DeformErode/JobErode.odb,Step-1,Increment      0: Step Time =,    0.000,"TUBE-1",          7221,   7.07107E-03,   7.07107E-03,   550.000E-03,NA,NA,"",  10.00000E-03,            0.,   550.000E-03,            0.,            0.
C:/ALETube/PressureUpdate/LargeStep/DeformErode/JobErode.odb,Step-1,Increment      0: Step Time =,    0.000,"TUBE-1",          7385,   7.07107E-03,   7.07107E-03,     562.5E-03,NA,NA,"",  10.00000E-03,            0.,     562.5E-03,            0.,            0.
C:/ALETube/PressureUpdate/LargeStep/DeformErode/JobErode.odb,Step-1,Increment      0: Step Time =,    0.000,"TUBE-1",          7419,   5.87785E-03,   8.09017E-03,     562.5E-03,NA,NA,"",  10.00000E-03,   867.362E-21,     562.5E-03,            0.,            0.
C:/ALETube/PressureUpdate/LargeStep/DeformErode/JobErode.odb,Step-1,Increment      0: Step Time =,    0.000,"TUBE-1",          7583,   5.87785E-03,   8.09017E-03,   575.000E-03,NA,NA,"",  10.00000E-03,   867.362E-21,   575.000E-03,            0.,            0.
C:/ALETube/PressureUpdate/LargeStep/DeformErode/JobErode.odb,Step-1,Increment      0: Step Time =,    0.000,"TUBE-1",          7549,   7.07107E-03,   7.07107E-03,   575.000E-03,NA,NA,"",  10.00000E-03,            0.,   575.000E-03,            0.,            0.
C:/ALETube/PressureUpdate/LargeStep/DeformErode/JobErode.odb,Step-1,Increment      0: Step Time =,    0.000,"TUBE-1",          7747,   5.87785E-03,   8.09017E-03,   587.500E-03,NA,NA,"",  10.00000E-03,   867.362E-21,   587.500E-03,            0.,            0.
C:/ALETube/PressureUpdate/LargeStep/DeformErode/JobErode.odb,Step-1,Increment      0: Step Time =,    0.000,"TUBE-1",          7713,   7.07107E-03,   7.07107E-03,   587.500E-03,NA,NA,"",  10.00000E-03,            0.,   587.500E-03,            0.,            0.
C:/ALETube/PressureUpdate/LargeStep/DeformErode/JobErode.odb,Step-1,Increment      0: Step Time =,    0.000,"TUBE-1",          7911,   5.87785E-03,   8.09017E-03,   600.000E-03,NA,NA,"",  10.00000E-03,   867.362E-21,   600.000E-03,            0.,            0.
C:/ALETube/PressureUpdate/LargeStep/DeformErode/JobErode.odb,Step-1,Increment      0: Step Time =,    0.000,"TUBE-1",          7877,   7.07107E-03,   7.07107E-03,   600.000E-03,NA,NA,"",  10.00000E-03,            0.,   600.000E-03,            0.,            0.
C:/ALETube/PressureUpdate/LargeStep/DeformErode/JobErode.odb,Step-1,Increment      0: Step Time =,    0.000,"TUBE-1",          8075,   5.87785E-03,   8.09017E-03,   612.500E-03,NA,NA,"",  10.00000E-03,   867.362E-21,   612.500E-03,            0.,            0.
C:/ALETube/PressureUpdate/LargeStep/DeformErode/JobErode.odb,Step-1,Increment      0: Step Time =,    0.000,"TUBE-1",          8041,   7.07107E-03,   7.07107E-03,   612.500E-03,NA,NA,"",  10.00000E-03,            0.,   612.500E-03,            0.,            0.
C:/ALETube/PressureUpdate/LargeStep/DeformErode/JobErode.odb,Step-1,Increment      0: Step Time =,    0.000,"TUBE-1",          8205,   7.07107E-03,   7.07107E-03,      625.E-03,NA,NA,"",  10.00000E-03,            0.,      625.E-03,            0.,            0.
C:/ALETube/PressureUpdate/LargeStep/DeformErode/JobErode.odb,Step-1,Increment      0: Step Time =,    0.000,"TUBE-1",          8239,   5.87785E-03,   8.09017E-03,      625.E-03,NA,NA,"",  10.00000E-03,   867.362E-21,      625.E-03,            0.,            0.
C:/ALETube/PressureUpdate/LargeStep/DeformErode/JobErode.odb,Step-1,Increment      0: Step Time =,    0.000,"TUBE-1",          8403,   5.87785E-03,   8.09017E-03,   637.500E-03,NA,NA,"",  10.00000E-03,   867.362E-21,   637.500E-03,            0.,            0.
C:/ALETube/PressureUpdate/LargeStep/DeformErode/JobErode.odb,Step-1,Increment      0: Step Time =,    0.000,"TUBE-1",          8369,   7.07107E-03,   7.07107E-03,   637.500E-03,NA,NA,"",  10.00000E-03,            0.,   637.500E-03,            0.,            0.
C:/ALETube/PressureUpdate/LargeStep/DeformErode/JobErode.odb,Step-1,Increment      0: Step Time =,    0.000,"TUBE-1",          8567,   5.87785E-03,   8.09017E-03,   650.000E-03,NA,NA,"",  10.00000E-03,   867.362E-21,   650.000E-03,            0.,            0.
C:/ALETube/PressureUpdate/LargeStep/DeformErode/JobErode.odb,Step-1,Increment      0: Step Time =,    0.000,"TUBE-1",          8533,   7.07107E-03,   7.07107E-03,   650.000E-03,NA,NA,"",  10.00000E-03,            0.,   650.000E-03,            0.,            0.
C:/ALETube/PressureUpdate/LargeStep/DeformErode/JobErode.odb,Step-1,Increment      0: Step Time =,    0.000,"TUBE-1",          8731,   5.87785E-03,   8.09017E-03,   662.500E-03,NA,NA,"",  10.00000E-03,   867.362E-21,   662.500E-03,            0.,            0.
C:/ALETube/PressureUpdate/LargeStep/DeformErode/JobErode.odb,Step-1,Increment      0: Step Time =,    0.000,"TUBE-1",          8697,   7.07107E-03,   7.07107E-03,   662.500E-03,NA,NA,"",  10.00000E-03,            0.,   662.500E-03,            0.,            0.
C:/ALETube/PressureUpdate/LargeStep/DeformErode/JobErode.odb,Step-1,Increment      0: Step Time =,    0.000,"TUBE-1",          8895,   5.87785E-03,   8.09017E-03,   675.000E-03,NA,NA,"",  10.00000E-03,   867.362E-21,   675.000E-03,            0.,            0.
C:/ALETube/PressureUpdate/LargeStep/DeformErode/JobErode.odb,Step-1,Increment      0: Step Time =,    0.000,"TUBE-1",          8861,   7.07107E-03,   7.07107E-03,   675.000E-03,NA,NA,"",  10.00000E-03,            0.,   675.000E-03,            0.,            0.
C:/ALETube/PressureUpdate/LargeStep/DeformErode/JobErode.odb,Step-1,Increment      0: Step Time =,    0.000,"TUBE-1",          9025,   7.07107E-03,   7.07107E-03,     687.5E-03,NA,NA,"",  10.00000E-03,            0.,     687.5E-03,            0.,            0.
C:/ALETube/PressureUpdate/LargeStep/DeformErode/JobErode.odb,Step-1,Increment      0: Step Time =,    0.000,"TUBE-1",          9059,   5.87785E-03,   8.09017E-03,     687.5E-03,NA,NA,"",  10.00000E-03,   867.362E-21,     687.5E-03,            0.,            0.
C:/ALETube/PressureUpdate/LargeStep/DeformErode/JobErode.odb,Step-1,Increment      0: Step Time =,    0.000,"TUBE-1",          9223,   5.87785E-03,   8.09017E-03,   700.000E-03,NA,NA,"",  10.00000E-03,   867.362E-21,   700.000E-03,            0.,            0.
C:/ALETube/PressureUpdate/LargeStep/DeformErode/JobErode.odb,Step-1,Increment      0: Step Time =,    0.000,"TUBE-1",          9189,   7.07107E-03,   7.07107E-03,   700.000E-03,NA,NA,"",  10.00000E-03,            0.,   700.000E-03,            0.,            0.
C:/ALETube/PressureUpdate/LargeStep/DeformErode/JobErode.odb,Step-1,Increment      0: Step Time =,    0.000,"TUBE-1",          9387,   5.87785E-03,   8.09017E-03,   712.500E-03,NA,NA,"",  10.00000E-03,   867.362E-21,   712.500E-03,            0.,            0.
C:/ALETube/PressureUpdate/LargeStep/DeformErode/JobErode.odb,Step-1,Increment      0: Step Time =,    0.000,"TUBE-1",          9353,   7.07107E-03,   7.07107E-03,   712.500E-03,NA,NA,"",  10.00000E-03,            0.,   712.500E-03,            0.,            0.
C:/ALETube/PressureUpdate/LargeStep/DeformErode/JobErode.odb,Step-1,Increment      0: Step Time =,    0.000,"TUBE-1",          9551,   5.87785E-03,   8.09017E-03,   725.000E-03,NA,NA,"",  10.00000E-03,   867.362E-21,   725.000E-03,            0.,            0.
C:/ALETube/PressureUpdate/LargeStep/DeformErode/JobErode.odb,Step-1,Increment      0: Step Time =,    0.000,"TUBE-1",          9517,   7.07107E-03,   7.07107E-03,   725.000E-03,NA,NA,"",  10.00000E-03,            0.,   725.000E-03,            0.,            0.
C:/ALETube/PressureUpdate/LargeStep/DeformErode/JobErode.odb,Step-1,Increment      0: Step Time =,    0.000,"TUBE-1",          9715,   5.87785E-03,   8.09017E-03,   737.500E-03,NA,NA,"",  10.00000E-03,   867.362E-21,   737.500E-03,            0.,            0.
C:/ALETube/PressureUpdate/LargeStep/DeformErode/JobErode.odb,Step-1,Increment      0: Step Time =,    0.000,"TUBE-1",          9681,   7.07107E-03,   7.07107E-03,   737.500E-03,NA,NA,"",  10.00000E-03,            0.,   737.500E-03,            0.,            0.
C:/ALETube/PressureUpdate/LargeStep/DeformErode/JobErode.odb,Step-1,Increment      0: Step Time =,    0.000,"TUBE-1",          9845,   7.07107E-03,   7.07107E-03,      750.E-03,NA,NA,"",  10.00000E-03,            0.,      750.E-03,            0.,            0.
C:/ALETube/PressureUpdate/LargeStep/DeformErode/JobErode.odb,Step-1,Increment      0: Step Time =,    0.000,"TUBE-1",          9879,   5.87785E-03,   8.09017E-03,      750.E-03,NA,NA,"",  10.00000E-03,   867.362E-21,      750.E-03,            0.,            0.
C:/ALETube/PressureUpdate/LargeStep/DeformErode/JobErode.odb,Step-1,Increment      0: Step Time =,    0.000,"TUBE-1",         10043,   5.87785E-03,   8.09017E-03,   762.500E-03,NA,NA,"",  10.00000E-03,   867.362E-21,   762.500E-03,            0.,            0.
C:/ALETube/PressureUpdate/LargeStep/DeformErode/JobErode.odb,Step-1,Increment      0: Step Time =,    0.000,"TUBE-1",         10009,   7.07107E-03,   7.07107E-03,   762.500E-03,NA,NA,"",  10.00000E-03,            0.,   762.500E-03,            0.,            0.
C:/ALETube/PressureUpdate/LargeStep/DeformErode/JobErode.odb,Step-1,Increment      0: Step Time =,    0.000,"TUBE-1",         10207,   5.87785E-03,   8.09017E-03,   775.000E-03,NA,NA,"",  10.00000E-03,   867.362E-21,   775.000E-03,            0.,            0.
C:/ALETube/PressureUpdate/LargeStep/DeformErode/JobErode.odb,Step-1,Increment      0: Step Time =,    0.000,"TUBE-1",         10173,   7.07107E-03,   7.07107E-03,   775.000E-03,NA,NA,"",  10.00000E-03,            0.,   775.000E-03,            0.,            0.
C:/ALETube/PressureUpdate/LargeStep/DeformErode/JobErode.odb,Step-1,Increment      0: Step Time =,    0.000,"TUBE-1",         10371,   5.87785E-03,   8.09017E-03,   787.500E-03,NA,NA,"",  10.00000E-03,   867.362E-21,   787.500E-03,            0.,            0.
C:/ALETube/PressureUpdate/LargeStep/DeformErode/JobErode.odb,Step-1,Increment      0: Step Time =,    0.000,"TUBE-1",         10337,   7.07107E-03,   7.07107E-03,   787.500E-03,NA,NA,"",  10.00000E-03,            0.,   787.500E-03,            0.,            0.
C:/ALETube/PressureUpdate/LargeStep/DeformErode/JobErode.odb,Step-1,Increment      0: Step Time =,    0.000,"TUBE-1",         10535,   5.87785E-03,   8.09017E-03,   800.000E-03,NA,NA,"",  10.00000E-03,   867.362E-21,   800.000E-03,            0.,            0.
C:/ALETube/PressureUpdate/LargeStep/DeformErode/JobErode.odb,Step-1,Increment      0: Step Time =,    0.000,"TUBE-1",         10501,   7.07107E-03,   7.07107E-03,   800.000E-03,NA,NA,"",  10.00000E-03,            0.,   800.000E-03,            0.,            0.
C:/ALETube/PressureUpdate/LargeStep/DeformErode/JobErode.odb,Step-1,Increment      0: Step Time =,    0.000,"TUBE-1",         10665,   7.07107E-03,   7.07107E-03,     812.5E-03,NA,NA,"",  10.00000E-03,            0.,     812.5E-03,            0.,            0.
C:/ALETube/PressureUpdate/LargeStep/DeformErode/JobErode.odb,Step-1,Increment      0: Step Time =,    0.000,"TUBE-1",         10699,   5.87785E-03,   8.09017E-03,     812.5E-03,NA,NA,"",  10.00000E-03,   867.362E-21,     812.5E-03,            0.,            0.
C:/ALETube/PressureUpdate/LargeStep/DeformErode/JobErode.odb,Step-1,Increment      0: Step Time =,    0.000,"TUBE-1",         10863,   5.87785E-03,   8.09017E-03,   825.000E-03,NA,NA,"",  10.00000E-03,   867.362E-21,   825.000E-03,            0.,            0.
C:/ALETube/PressureUpdate/LargeStep/DeformErode/JobErode.odb,Step-1,Increment      0: Step Time =,    0.000,"TUBE-1",         10829,   7.07107E-03,   7.07107E-03,   825.000E-03,NA,NA,"",  10.00000E-03,            0.,   825.000E-03,            0.,            0.
C:/ALETube/PressureUpdate/LargeStep/DeformErode/JobErode.odb,Step-1,Increment      0: Step Time =,    0.000,"TUBE-1",         11027,   5.87785E-03,   8.09017E-03,   837.500E-03,NA,NA,"",  10.00000E-03,   867.362E-21,   837.500E-03,            0.,            0.
C:/ALETube/PressureUpdate/LargeStep/DeformErode/JobErode.odb,Step-1,Increment      0: Step Time =,    0.000,"TUBE-1",         10993,   7.07107E-03,   7.07107E-03,   837.500E-03,NA,NA,"",  10.00000E-03,            0.,   837.500E-03,            0.,            0.
C:/ALETube/PressureUpdate/LargeStep/DeformErode/JobErode.odb,Step-1,Increment      0: Step Time =,    0.000,"TUBE-1",         11191,   5.87785E-03,   8.09017E-03,   850.000E-03,NA,NA,"",  10.00000E-03,   867.362E-21,   850.000E-03,            0.,            0.
C:/ALETube/PressureUpdate/LargeStep/DeformErode/JobErode.odb,Step-1,Increment      0: Step Time =,    0.000,"TUBE-1",         11157,   7.07107E-03,   7.07107E-03,   850.000E-03,NA,NA,"",  10.00000E-03,            0.,   850.000E-03,            0.,            0.
C:/ALETube/PressureUpdate/LargeStep/DeformErode/JobErode.odb,Step-1,Increment      0: Step Time =,    0.000,"TUBE-1",         11355,   5.87785E-03,   8.09017E-03,   862.500E-03,NA,NA,"",  10.00000E-03,   867.362E-21,   862.500E-03,            0.,            0.
C:/ALETube/PressureUpdate/LargeStep/DeformErode/JobErode.odb,Step-1,Increment      0: Step Time =,    0.000,"TUBE-1",         11321,   7.07107E-03,   7.07107E-03,   862.500E-03,NA,NA,"",  10.00000E-03,            0.,   862.500E-03,            0.,            0.
C:/ALETube/PressureUpdate/LargeStep/DeformErode/JobErode.odb,Step-1,Increment      0: Step Time =,    0.000,"TUBE-1",         11485,   7.07107E-03,   7.07107E-03,      875.E-03,NA,NA,"",  10.00000E-03,            0.,      875.E-03,            0.,            0.
C:/ALETube/PressureUpdate/LargeStep/DeformErode/JobErode.odb,Step-1,Increment      0: Step Time =,    0.000,"TUBE-1",         11519,   5.87785E-03,   8.09017E-03,      875.E-03,NA,NA,"",  10.00000E-03,   867.362E-21,      875.E-03,            0.,            0.
C:/ALETube/PressureUpdate/LargeStep/DeformErode/JobErode.odb,Step-1,Increment      0: Step Time =,    0.000,"TUBE-1",         11683,   5.87785E-03,   8.09017E-03,   887.500E-03,NA,NA,"",  10.00000E-03,   867.362E-21,   887.500E-03,            0.,            0.
C:/ALETube/PressureUpdate/LargeStep/DeformErode/JobErode.odb,Step-1,Increment      0: Step Time =,    0.000,"TUBE-1",         11649,   7.07107E-03,   7.07107E-03,   887.500E-03,NA,NA,"",  10.00000E-03,            0.,   887.500E-03,            0.,            0.
C:/ALETube/PressureUpdate/LargeStep/DeformErode/JobErode.odb,Step-1,Increment      0: Step Time =,    0.000,"TUBE-1",         11847,   5.87785E-03,   8.09017E-03,   900.000E-03,NA,NA,"",  10.00000E-03,   867.362E-21,   900.000E-03,            0.,            0.
C:/ALETube/PressureUpdate/LargeStep/DeformErode/JobErode.odb,Step-1,Increment      0: Step Time =,    0.000,"TUBE-1",         11813,   7.07107E-03,   7.07107E-03,   900.000E-03,NA,NA,"",  10.00000E-03,            0.,   900.000E-03,            0.,            0.
C:/ALETube/PressureUpdate/LargeStep/DeformErode/JobErode.odb,Step-1,Increment      0: Step Time =,    0.000,"TUBE-1",         12011,   5.87785E-03,   8.09017E-03,   912.500E-03,NA,NA,"",  10.00000E-03,   867.362E-21,   912.500E-03,            0.,            0.
C:/ALETube/PressureUpdate/LargeStep/DeformErode/JobErode.odb,Step-1,Increment      0: Step Time =,    0.000,"TUBE-1",         11977,   7.07107E-03,   7.07107E-03,   912.500E-03,NA,NA,"",  10.00000E-03,            0.,   912.500E-03,            0.,            0.
C:/ALETube/PressureUpdate/LargeStep/DeformErode/JobErode.odb,Step-1,Increment      0: Step Time =,    0.000,"TUBE-1",         12175,   5.87785E-03,   8.09017E-03,   925.000E-03,NA,NA,"",  10.00000E-03,   867.362E-21,   925.000E-03,            0.,            0.
C:/ALETube/PressureUpdate/LargeStep/DeformErode/JobErode.odb,Step-1,Increment      0: Step Time =,    0.000,"TUBE-1",         12141,   7.07107E-03,   7.07107E-03,   925.000E-03,NA,NA,"",  10.00000E-03,            0.,   925.000E-03,            0.,            0.
C:/ALETube/PressureUpdate/LargeStep/DeformErode/JobErode.odb,Step-1,Increment      0: Step Time =,    0.000,"TUBE-1",         12305,   7.07107E-03,   7.07107E-03,     937.5E-03,NA,NA,"",  10.00000E-03,            0.,     937.5E-03,            0.,            0.
C:/ALETube/PressureUpdate/LargeStep/DeformErode/JobErode.odb,Step-1,Increment      0: Step Time =,    0.000,"TUBE-1",         12339,   5.87785E-03,   8.09017E-03,     937.5E-03,NA,NA,"",  10.00000E-03,   867.362E-21,     937.5E-03,            0.,            0.
C:/ALETube/PressureUpdate/LargeStep/DeformErode/JobErode.odb,Step-1,Increment      0: Step Time =,    0.000,"TUBE-1",         12503,   5.87785E-03,   8.09017E-03,   950.000E-03,NA,NA,"",  10.00000E-03,   867.362E-21,   950.000E-03,            0.,            0.
C:/ALETube/PressureUpdate/LargeStep/DeformErode/JobErode.odb,Step-1,Increment      0: Step Time =,    0.000,"TUBE-1",         12469,   7.07107E-03,   7.07107E-03,   950.000E-03,NA,NA,"",  10.00000E-03,            0.,   950.000E-03,            0.,            0.
C:/ALETube/PressureUpdate/LargeStep/DeformErode/JobErode.odb,Step-1,Increment      0: Step Time =,    0.000,"TUBE-1",         12667,   5.87785E-03,   8.09017E-03,   962.500E-03,NA,NA,"",  10.00000E-03,   867.362E-21,   962.500E-03,            0.,            0.
C:/ALETube/PressureUpdate/LargeStep/DeformErode/JobErode.odb,Step-1,Increment      0: Step Time =,    0.000,"TUBE-1",         12633,   7.07107E-03,   7.07107E-03,   962.500E-03,NA,NA,"",  10.00000E-03,            0.,   962.500E-03,            0.,            0.
C:/ALETube/PressureUpdate/LargeStep/DeformErode/JobErode.odb,Step-1,Increment      0: Step Time =,    0.000,"TUBE-1",         12831,   5.87785E-03,   8.09017E-03,   975.000E-03,NA,NA,"",  10.00000E-03,   867.362E-21,   975.000E-03,            0.,            0.
C:/ALETube/PressureUpdate/LargeStep/DeformErode/JobErode.odb,Step-1,Increment      0: Step Time =,    0.000,"TUBE-1",         12797,   7.07107E-03,   7.07107E-03,   975.000E-03,NA,NA,"",  10.00000E-03,            0.,   975.000E-03,            0.,            0.
C:/ALETube/PressureUpdate/LargeStep/DeformErode/JobErode.odb,Step-1,Increment      0: Step Time =,    0.000,"TUBE-1",         12995,   5.87785E-03,   8.09017E-03,   987.500E-03,NA,NA,"",  10.00000E-03,   867.362E-21,   987.500E-03,            0.,            0.
C:/ALETube/PressureUpdate/LargeStep/DeformErode/JobErode.odb,Step-1,Increment      0: Step Time =,    0.000,"TUBE-1",         12961,   7.07107E-03,   7.07107E-03,   987.500E-03,NA,NA,"",  10.00000E-03,            0.,   987.500E-03,            0.,            0.
C:/ALETube/PressureUpdate/LargeStep/DeformErode/JobErode.odb,Step-1,Increment      0: Step Time =,    0.000,"TUBE-1",         13125,   7.07107E-03,   7.07107E-03,            1.,NA,NA,"",  10.00000E-03,            0.,            1.,            0.,            0.
C:/ALETube/PressureUpdate/LargeStep/DeformErode/JobErode.odb,Step-1,Increment      0: Step Time =,    0.000,"TUBE-1",         13159,   5.87785E-03,   8.09017E-03,            1.,NA,NA,"",  10.00000E-03,   867.362E-21,            1.,            0.,            0.
C:/ALETube/PressureUpdate/LargeStep/DeformErode/JobErode.odb,Step-1,Increment      0: Step Time =,    0.000,"TUBE-1",         13323,   5.87785E-03,   8.09017E-03,       1.01250,NA,NA,"",  10.00000E-03,   867.362E-21,       1.01250,            0.,            0.
C:/ALETube/PressureUpdate/LargeStep/DeformErode/JobErode.odb,Step-1,Increment      0: Step Time =,    0.000,"TUBE-1",         13289,   7.07107E-03,   7.07107E-03,       1.01250,NA,NA,"",  10.00000E-03,            0.,       1.01250,            0.,            0.
C:/ALETube/PressureUpdate/LargeStep/DeformErode/JobErode.odb,Step-1,Increment      0: Step Time =,    0.000,"TUBE-1",         13487,   5.87785E-03,   8.09017E-03,       1.02500,NA,NA,"",  10.00000E-03,   867.362E-21,       1.02500,            0.,            0.
C:/ALETube/PressureUpdate/LargeStep/DeformErode/JobErode.odb,Step-1,Increment      0: Step Time =,    0.000,"TUBE-1",         13453,   7.07107E-03,   7.07107E-03,       1.02500,NA,NA,"",  10.00000E-03,            0.,       1.02500,            0.,            0.
C:/ALETube/PressureUpdate/LargeStep/DeformErode/JobErode.odb,Step-1,Increment      0: Step Time =,    0.000,"TUBE-1",         13617,   7.07107E-03,   7.07107E-03,       1.03750,NA,NA,"",  10.00000E-03,            0.,       1.03750,            0.,            0.
C:/ALETube/PressureUpdate/LargeStep/DeformErode/JobErode.odb,Step-1,Increment      0: Step Time =,    0.000,"TUBE-1",         13651,   5.87785E-03,   8.09017E-03,       1.03750,NA,NA,"",  10.00000E-03,   867.362E-21,       1.03750,            0.,            0.
C:/ALETube/PressureUpdate/LargeStep/DeformErode/JobErode.odb,Step-1,Increment      0: Step Time =,    0.000,"TUBE-1",         13815,   5.87785E-03,   8.09017E-03,       1.05000,NA,NA,"",  10.00000E-03,   867.362E-21,       1.05000,            0.,            0.
C:/ALETube/PressureUpdate/LargeStep/DeformErode/JobErode.odb,Step-1,Increment      0: Step Time =,    0.000,"TUBE-1",         13781,   7.07107E-03,   7.07107E-03,       1.05000,NA,NA,"",  10.00000E-03,            0.,       1.05000,            0.,            0.
C:/ALETube/PressureUpdate/LargeStep/DeformErode/JobErode.odb,Step-1,Increment      0: Step Time =,    0.000,"TUBE-1",         13979,   5.87785E-03,   8.09017E-03,        1.0625,NA,NA,"",  10.00000E-03,   867.362E-21,        1.0625,            0.,            0.
C:/ALETube/PressureUpdate/LargeStep/DeformErode/JobErode.odb,Step-1,Increment      0: Step Time =,    0.000,"TUBE-1",         13945,   7.07107E-03,   7.07107E-03,        1.0625,NA,NA,"",  10.00000E-03,            0.,        1.0625,            0.,            0.
C:/ALETube/PressureUpdate/LargeStep/DeformErode/JobErode.odb,Step-1,Increment      0: Step Time =,    0.000,"TUBE-1",         14109,   7.07107E-03,   7.07107E-03,       1.07500,NA,NA,"",  10.00000E-03,            0.,       1.07500,            0.,            0.
C:/ALETube/PressureUpdate/LargeStep/DeformErode/JobErode.odb,Step-1,Increment      0: Step Time =,    0.000,"TUBE-1",         14143,   5.87785E-03,   8.09017E-03,       1.07500,NA,NA,"",  10.00000E-03,   867.362E-21,       1.07500,            0.,            0.
C:/ALETube/PressureUpdate/LargeStep/DeformErode/JobErode.odb,Step-1,Increment      0: Step Time =,    0.000,"TUBE-1",         14307,   5.87785E-03,   8.09017E-03,       1.08750,NA,NA,"",  10.00000E-03,   867.362E-21,       1.08750,            0.,            0.
C:/ALETube/PressureUpdate/LargeStep/DeformErode/JobErode.odb,Step-1,Increment      0: Step Time =,    0.000,"TUBE-1",         14273,   7.07107E-03,   7.07107E-03,       1.08750,NA,NA,"",  10.00000E-03,            0.,       1.08750,            0.,            0.
C:/ALETube/PressureUpdate/LargeStep/DeformErode/JobErode.odb,Step-1,Increment      0: Step Time =,    0.000,"TUBE-1",         14471,   5.87785E-03,   8.09017E-03,       1.10000,NA,NA,"",  10.00000E-03,   867.362E-21,       1.10000,            0.,            0.
C:/ALETube/PressureUpdate/LargeStep/DeformErode/JobErode.odb,Step-1,Increment      0: Step Time =,    0.000,"TUBE-1",         14437,   7.07107E-03,   7.07107E-03,       1.10000,NA,NA,"",  10.00000E-03,            0.,       1.10000,            0.,            0.
C:/ALETube/PressureUpdate/LargeStep/DeformErode/JobErode.odb,Step-1,Increment      0: Step Time =,    0.000,"TUBE-1",         14635,   5.87785E-03,   8.09017E-03,       1.11250,NA,NA,"",  10.00000E-03,   867.362E-21,       1.11250,            0.,            0.
C:/ALETube/PressureUpdate/LargeStep/DeformErode/JobErode.odb,Step-1,Increment      0: Step Time =,    0.000,"TUBE-1",         14601,   7.07107E-03,   7.07107E-03,       1.11250,NA,NA,"",  10.00000E-03,            0.,       1.11250,            0.,            0.
C:/ALETube/PressureUpdate/LargeStep/DeformErode/JobErode.odb,Step-1,Increment      0: Step Time =,    0.000,"TUBE-1",         14799,   5.87785E-03,   8.09017E-03,         1.125,NA,NA,"",  10.00000E-03,   867.362E-21,         1.125,            0.,            0.
C:/ALETube/PressureUpdate/LargeStep/DeformErode/JobErode.odb,Step-1,Increment      0: Step Time =,    0.000,"TUBE-1",         14765,   7.07107E-03,   7.07107E-03,         1.125,NA,NA,"",  10.00000E-03,            0.,         1.125,            0.,            0.
C:/ALETube/PressureUpdate/LargeStep/DeformErode/JobErode.odb,Step-1,Increment      0: Step Time =,    0.000,"TUBE-1",         14929,   7.07107E-03,   7.07107E-03,       1.13750,NA,NA,"",  10.00000E-03,            0.,       1.13750,            0.,            0.
C:/ALETube/PressureUpdate/LargeStep/DeformErode/JobErode.odb,Step-1,Increment      0: Step Time =,    0.000,"TUBE-1",         14963,   5.87785E-03,   8.09017E-03,       1.13750,NA,NA,"",  10.00000E-03,   867.362E-21,       1.13750,            0.,            0.
C:/ALETube/PressureUpdate/LargeStep/DeformErode/JobErode.odb,Step-1,Increment      0: Step Time =,    0.000,"TUBE-1",         15127,   5.87785E-03,   8.09017E-03,       1.15000,NA,NA,"",  10.00000E-03,   867.362E-21,       1.15000,            0.,            0.
C:/ALETube/PressureUpdate/LargeStep/DeformErode/JobErode.odb,Step-1,Increment      0: Step Time =,    0.000,"TUBE-1",         15093,   7.07107E-03,   7.07107E-03,       1.15000,NA,NA,"",  10.00000E-03,            0.,       1.15000,            0.,            0.
C:/ALETube/PressureUpdate/LargeStep/DeformErode/JobErode.odb,Step-1,Increment      0: Step Time =,    0.000,"TUBE-1",         15291,   5.87785E-03,   8.09017E-03,       1.16250,NA,NA,"",  10.00000E-03,   867.362E-21,       1.16250,            0.,            0.
C:/ALETube/PressureUpdate/LargeStep/DeformErode/JobErode.odb,Step-1,Increment      0: Step Time =,    0.000,"TUBE-1",         15257,   7.07107E-03,   7.07107E-03,       1.16250,NA,NA,"",  10.00000E-03,            0.,       1.16250,            0.,            0.
C:/ALETube/PressureUpdate/LargeStep/DeformErode/JobErode.odb,Step-1,Increment      0: Step Time =,    0.000,"TUBE-1",         15455,   5.87785E-03,   8.09017E-03,       1.17500,NA,NA,"",  10.00000E-03,   867.362E-21,       1.17500,            0.,            0.
C:/ALETube/PressureUpdate/LargeStep/DeformErode/JobErode.odb,Step-1,Increment      0: Step Time =,    0.000,"TUBE-1",         15421,   7.07107E-03,   7.07107E-03,       1.17500,NA,NA,"",  10.00000E-03,            0.,       1.17500,            0.,            0.
C:/ALETube/PressureUpdate/LargeStep/DeformErode/JobErode.odb,Step-1,Increment      0: Step Time =,    0.000,"TUBE-1",         15619,   5.87785E-03,   8.09017E-03,        1.1875,NA,NA,"",  10.00000E-03,   867.362E-21,        1.1875,            0.,            0.
C:/ALETube/PressureUpdate/LargeStep/DeformErode/JobErode.odb,Step-1,Increment      0: Step Time =,    0.000,"TUBE-1",         15585,   7.07107E-03,   7.07107E-03,        1.1875,NA,NA,"",  10.00000E-03,            0.,        1.1875,            0.,            0.
C:/ALETube/PressureUpdate/LargeStep/DeformErode/JobErode.odb,Step-1,Increment      0: Step Time =,    0.000,"TUBE-1",         15749,   7.07107E-03,   7.07107E-03,       1.20000,NA,NA,"",  10.00000E-03,            0.,       1.20000,            0.,            0.
C:/ALETube/PressureUpdate/LargeStep/DeformErode/JobErode.odb,Step-1,Increment      0: Step Time =,    0.000,"TUBE-1",         15783,   5.87785E-03,   8.09017E-03,       1.20000,NA,NA,"",  10.00000E-03,   867.362E-21,       1.20000,            0.,            0.
C:/ALETube/PressureUpdate/LargeStep/DeformErode/JobErode.odb,Step-1,Increment      0: Step Time =,    0.000,"TUBE-1",         15947,   5.87785E-03,   8.09017E-03,       1.21250,NA,NA,"",  10.00000E-03,   867.362E-21,       1.21250,            0.,            0.
C:/ALETube/PressureUpdate/LargeStep/DeformErode/JobErode.odb,Step-1,Increment      0: Step Time =,    0.000,"TUBE-1",         15913,   7.07107E-03,   7.07107E-03,       1.21250,NA,NA,"",  10.00000E-03,            0.,       1.21250,            0.,            0.
C:/ALETube/PressureUpdate/LargeStep/DeformErode/JobErode.odb,Step-1,Increment      0: Step Time =,    0.000,"TUBE-1",         16111,   5.87785E-03,   8.09017E-03,       1.22500,NA,NA,"",  10.00000E-03,   867.362E-21,       1.22500,            0.,            0.
C:/ALETube/PressureUpdate/LargeStep/DeformErode/JobErode.odb,Step-1,Increment      0: Step Time =,    0.000,"TUBE-1",         16077,   7.07107E-03,   7.07107E-03,       1.22500,NA,NA,"",  10.00000E-03,            0.,       1.22500,            0.,            0.
C:/ALETube/PressureUpdate/LargeStep/DeformErode/JobErode.odb,Step-1,Increment      0: Step Time =,    0.000,"TUBE-1",         16275,   5.87785E-03,   8.09017E-03,       1.23750,NA,NA,"",  10.00000E-03,   867.362E-21,       1.23750,            0.,            0.
C:/ALETube/PressureUpdate/LargeStep/DeformErode/JobErode.odb,Step-1,Increment      0: Step Time =,    0.000,"TUBE-1",         16241,   7.07107E-03,   7.07107E-03,       1.23750,NA,NA,"",  10.00000E-03,            0.,       1.23750,            0.,            0.
C:/ALETube/PressureUpdate/LargeStep/DeformErode/JobErode.odb,Step-1,Increment      0: Step Time =,    0.000,"TUBE-1",         16439,   5.87785E-03,   8.09017E-03,          1.25,NA,NA,"",  10.00000E-03,   867.362E-21,          1.25,            0.,            0.
C:/ALETube/PressureUpdate/LargeStep/DeformErode/JobErode.odb,Step-1,Increment      0: Step Time =,    0.000,"TUBE-1",         16405,   7.07107E-03,   7.07107E-03,          1.25,NA,NA,"",  10.00000E-03,            0.,          1.25,            0.,            0.
C:/ALETube/PressureUpdate/LargeStep/DeformErode/JobErode.odb,Step-1,Increment      0: Step Time =,    0.000,"TUBE-1",         16569,   7.07107E-03,   7.07107E-03,       1.26250,NA,NA,"",  10.00000E-03,            0.,       1.26250,            0.,            0.
C:/ALETube/PressureUpdate/LargeStep/DeformErode/JobErode.odb,Step-1,Increment      0: Step Time =,    0.000,"TUBE-1",         16603,   5.87785E-03,   8.09017E-03,       1.26250,NA,NA,"",  10.00000E-03,   867.362E-21,       1.26250,            0.,            0.
C:/ALETube/PressureUpdate/LargeStep/DeformErode/JobErode.odb,Step-1,Increment      0: Step Time =,    0.000,"TUBE-1",         16767,   5.87785E-03,   8.09017E-03,       1.27500,NA,NA,"",  10.00000E-03,   867.362E-21,       1.27500,            0.,            0.
C:/ALETube/PressureUpdate/LargeStep/DeformErode/JobErode.odb,Step-1,Increment      0: Step Time =,    0.000,"TUBE-1",         16733,   7.07107E-03,   7.07107E-03,       1.27500,NA,NA,"",  10.00000E-03,            0.,       1.27500,            0.,            0.
C:/ALETube/PressureUpdate/LargeStep/DeformErode/JobErode.odb,Step-1,Increment      0: Step Time =,    0.000,"TUBE-1",         16931,   5.87785E-03,   8.09017E-03,       1.28750,NA,NA,"",  10.00000E-03,   867.362E-21,       1.28750,            0.,            0.
C:/ALETube/PressureUpdate/LargeStep/DeformErode/JobErode.odb,Step-1,Increment      0: Step Time =,    0.000,"TUBE-1",         16897,   7.07107E-03,   7.07107E-03,       1.28750,NA,NA,"",  10.00000E-03,            0.,       1.28750,            0.,            0.
C:/ALETube/PressureUpdate/LargeStep/DeformErode/JobErode.odb,Step-1,Increment      0: Step Time =,    0.000,"TUBE-1",         17095,   5.87785E-03,   8.09017E-03,       1.30000,NA,NA,"",  10.00000E-03,   867.362E-21,       1.30000,            0.,            0.
C:/ALETube/PressureUpdate/LargeStep/DeformErode/JobErode.odb,Step-1,Increment      0: Step Time =,    0.000,"TUBE-1",         17061,   7.07107E-03,   7.07107E-03,       1.30000,NA,NA,"",  10.00000E-03,            0.,       1.30000,            0.,            0.
C:/ALETube/PressureUpdate/LargeStep/DeformErode/JobErode.odb,Step-1,Increment      0: Step Time =,    0.000,"TUBE-1",         17259,   5.87785E-03,   8.09017E-03,        1.3125,NA,NA,"",  10.00000E-03,   867.362E-21,        1.3125,            0.,            0.
C:/ALETube/PressureUpdate/LargeStep/DeformErode/JobErode.odb,Step-1,Increment      0: Step Time =,    0.000,"TUBE-1",         17225,   7.07107E-03,   7.07107E-03,        1.3125,NA,NA,"",  10.00000E-03,            0.,        1.3125,            0.,            0.
C:/ALETube/PressureUpdate/LargeStep/DeformErode/JobErode.odb,Step-1,Increment      0: Step Time =,    0.000,"TUBE-1",         17389,   7.07107E-03,   7.07107E-03,       1.32500,NA,NA,"",  10.00000E-03,            0.,       1.32500,            0.,            0.
C:/ALETube/PressureUpdate/LargeStep/DeformErode/JobErode.odb,Step-1,Increment      0: Step Time =,    0.000,"TUBE-1",         17423,   5.87785E-03,   8.09017E-03,       1.32500,NA,NA,"",  10.00000E-03,   867.362E-21,       1.32500,            0.,            0.
C:/ALETube/PressureUpdate/LargeStep/DeformErode/JobErode.odb,Step-1,Increment      0: Step Time =,    0.000,"TUBE-1",         17587,   5.87785E-03,   8.09017E-03,       1.33750,NA,NA,"",  10.00000E-03,   867.362E-21,       1.33750,            0.,            0.
C:/ALETube/PressureUpdate/LargeStep/DeformErode/JobErode.odb,Step-1,Increment      0: Step Time =,    0.000,"TUBE-1",         17553,   7.07107E-03,   7.07107E-03,       1.33750,NA,NA,"",  10.00000E-03,            0.,       1.33750,            0.,            0.
C:/ALETube/PressureUpdate/LargeStep/DeformErode/JobErode.odb,Step-1,Increment      0: Step Time =,    0.000,"TUBE-1",         17751,   5.87785E-03,   8.09017E-03,       1.35000,NA,NA,"",  10.00000E-03,   867.362E-21,       1.35000,            0.,            0.
C:/ALETube/PressureUpdate/LargeStep/DeformErode/JobErode.odb,Step-1,Increment      0: Step Time =,    0.000,"TUBE-1",         17717,   7.07107E-03,   7.07107E-03,       1.35000,NA,NA,"",  10.00000E-03,            0.,       1.35000,            0.,            0.
C:/ALETube/PressureUpdate/LargeStep/DeformErode/JobErode.odb,Step-1,Increment      0: Step Time =,    0.000,"TUBE-1",         17915,   5.87785E-03,   8.09017E-03,       1.36250,NA,NA,"",  10.00000E-03,   867.362E-21,       1.36250,            0.,            0.
C:/ALETube/PressureUpdate/LargeStep/DeformErode/JobErode.odb,Step-1,Increment      0: Step Time =,    0.000,"TUBE-1",         17881,   7.07107E-03,   7.07107E-03,       1.36250,NA,NA,"",  10.00000E-03,            0.,       1.36250,            0.,            0.
C:/ALETube/PressureUpdate/LargeStep/DeformErode/JobErode.odb,Step-1,Increment      0: Step Time =,    0.000,"TUBE-1",         18079,   5.87785E-03,   8.09017E-03,         1.375,NA,NA,"",  10.00000E-03,   867.362E-21,         1.375,            0.,            0.
C:/ALETube/PressureUpdate/LargeStep/DeformErode/JobErode.odb,Step-1,Increment      0: Step Time =,    0.000,"TUBE-1",         18045,   7.07107E-03,   7.07107E-03,         1.375,NA,NA,"",  10.00000E-03,            0.,         1.375,            0.,            0.
C:/ALETube/PressureUpdate/LargeStep/DeformErode/JobErode.odb,Step-1,Increment      0: Step Time =,    0.000,"TUBE-1",         18209,   7.07107E-03,   7.07107E-03,       1.38750,NA,NA,"",  10.00000E-03,            0.,       1.38750,            0.,            0.
C:/ALETube/PressureUpdate/LargeStep/DeformErode/JobErode.odb,Step-1,Increment      0: Step Time =,    0.000,"TUBE-1",         18243,   5.87785E-03,   8.09017E-03,       1.38750,NA,NA,"",  10.00000E-03,   867.362E-21,       1.38750,            0.,            0.
C:/ALETube/PressureUpdate/LargeStep/DeformErode/JobErode.odb,Step-1,Increment      0: Step Time =,    0.000,"TUBE-1",         18407,   5.87785E-03,   8.09017E-03,       1.40000,NA,NA,"",  10.00000E-03,   867.362E-21,       1.40000,            0.,            0.
C:/ALETube/PressureUpdate/LargeStep/DeformErode/JobErode.odb,Step-1,Increment      0: Step Time =,    0.000,"TUBE-1",         18373,   7.07107E-03,   7.07107E-03,       1.40000,NA,NA,"",  10.00000E-03,            0.,       1.40000,            0.,            0.
C:/ALETube/PressureUpdate/LargeStep/DeformErode/JobErode.odb,Step-1,Increment      0: Step Time =,    0.000,"TUBE-1",         18571,   5.87785E-03,   8.09017E-03,       1.41250,NA,NA,"",  10.00000E-03,   867.362E-21,       1.41250,            0.,            0.
C:/ALETube/PressureUpdate/LargeStep/DeformErode/JobErode.odb,Step-1,Increment      0: Step Time =,    0.000,"TUBE-1",         18537,   7.07107E-03,   7.07107E-03,       1.41250,NA,NA,"",  10.00000E-03,            0.,       1.41250,            0.,            0.
C:/ALETube/PressureUpdate/LargeStep/DeformErode/JobErode.odb,Step-1,Increment      0: Step Time =,    0.000,"TUBE-1",         18735,   5.87785E-03,   8.09017E-03,       1.42500,NA,NA,"",  10.00000E-03,   867.362E-21,       1.42500,            0.,            0.
C:/ALETube/PressureUpdate/LargeStep/DeformErode/JobErode.odb,Step-1,Increment      0: Step Time =,    0.000,"TUBE-1",         18701,   7.07107E-03,   7.07107E-03,       1.42500,NA,NA,"",  10.00000E-03,            0.,       1.42500,            0.,            0.
C:/ALETube/PressureUpdate/LargeStep/DeformErode/JobErode.odb,Step-1,Increment      0: Step Time =,    0.000,"TUBE-1",         18899,   5.87785E-03,   8.09017E-03,        1.4375,NA,NA,"",  10.00000E-03,   867.362E-21,        1.4375,            0.,            0.
C:/ALETube/PressureUpdate/LargeStep/DeformErode/JobErode.odb,Step-1,Increment      0: Step Time =,    0.000,"TUBE-1",         18865,   7.07107E-03,   7.07107E-03,        1.4375,NA,NA,"",  10.00000E-03,            0.,        1.4375,            0.,            0.
C:/ALETube/PressureUpdate/LargeStep/DeformErode/JobErode.odb,Step-1,Increment      0: Step Time =,    0.000,"TUBE-1",         19029,   7.07107E-03,   7.07107E-03,       1.45000,NA,NA,"",  10.00000E-03,            0.,       1.45000,            0.,            0.
C:/ALETube/PressureUpdate/LargeStep/DeformErode/JobErode.odb,Step-1,Increment      0: Step Time =,    0.000,"TUBE-1",         19063,   5.87785E-03,   8.09017E-03,       1.45000,NA,NA,"",  10.00000E-03,   867.362E-21,       1.45000,            0.,            0.
C:/ALETube/PressureUpdate/LargeStep/DeformErode/JobErode.odb,Step-1,Increment      0: Step Time =,    0.000,"TUBE-1",         19227,   5.87785E-03,   8.09017E-03,       1.46250,NA,NA,"",  10.00000E-03,   867.362E-21,       1.46250,            0.,            0.
C:/ALETube/PressureUpdate/LargeStep/DeformErode/JobErode.odb,Step-1,Increment      0: Step Time =,    0.000,"TUBE-1",         19193,   7.07107E-03,   7.07107E-03,       1.46250,NA,NA,"",  10.00000E-03,            0.,       1.46250,            0.,            0.
C:/ALETube/PressureUpdate/LargeStep/DeformErode/JobErode.odb,Step-1,Increment      0: Step Time =,    0.000,"TUBE-1",         19391,   5.87785E-03,   8.09017E-03,       1.47500,NA,NA,"",  10.00000E-03,   867.362E-21,       1.47500,            0.,            0.
C:/ALETube/PressureUpdate/LargeStep/DeformErode/JobErode.odb,Step-1,Increment      0: Step Time =,    0.000,"TUBE-1",         19357,   7.07107E-03,   7.07107E-03,       1.47500,NA,NA,"",  10.00000E-03,            0.,       1.47500,            0.,            0.
C:/ALETube/PressureUpdate/LargeStep/DeformErode/JobErode.odb,Step-1,Increment      0: Step Time =,    0.000,"TUBE-1",         19555,   5.87785E-03,   8.09017E-03,       1.48750,NA,NA,"",  10.00000E-03,   867.362E-21,       1.48750,            0.,            0.
C:/ALETube/PressureUpdate/LargeStep/DeformErode/JobErode.odb,Step-1,Increment      0: Step Time =,    0.000,"TUBE-1",         19521,   7.07107E-03,   7.07107E-03,       1.48750,NA,NA,"",  10.00000E-03,            0.,       1.48750,            0.,            0.
C:/ALETube/PressureUpdate/LargeStep/DeformErode/JobErode.odb,Step-1,Increment      0: Step Time =,    0.000,"TUBE-1",         19719,   5.87785E-03,   8.09017E-03,           1.5,NA,NA,"",  10.00000E-03,   867.362E-21,           1.5,            0.,            0.
C:/ALETube/PressureUpdate/LargeStep/DeformErode/JobErode.odb,Step-1,Increment      0: Step Time =,    0.000,"TUBE-1",         19685,   7.07107E-03,   7.07107E-03,           1.5,NA,NA,"",  10.00000E-03,            0.,           1.5,            0.,            0.
C:/ALETube/PressureUpdate/LargeStep/DeformErode/JobErode.odb,Step-1,Increment      0: Step Time =,    0.000,"TUBE-1",         19849,   7.07107E-03,   7.07107E-03,       1.51250,NA,NA,"",  10.00000E-03,            0.,       1.51250,            0.,            0.
C:/ALETube/PressureUpdate/LargeStep/DeformErode/JobErode.odb,Step-1,Increment      0: Step Time =,    0.000,"TUBE-1",         19883,   5.87785E-03,   8.09017E-03,       1.51250,NA,NA,"",  10.00000E-03,   867.362E-21,       1.51250,            0.,            0.
C:/ALETube/PressureUpdate/LargeStep/DeformErode/JobErode.odb,Step-1,Increment      0: Step Time =,    0.000,"TUBE-1",         20047,   5.87785E-03,   8.09017E-03,       1.52500,NA,NA,"",  10.00000E-03,   867.362E-21,       1.52500,            0.,            0.
C:/ALETube/PressureUpdate/LargeStep/DeformErode/JobErode.odb,Step-1,Increment      0: Step Time =,    0.000,"TUBE-1",         20013,   7.07107E-03,   7.07107E-03,       1.52500,NA,NA,"",  10.00000E-03,            0.,       1.52500,            0.,            0.
C:/ALETube/PressureUpdate/LargeStep/DeformErode/JobErode.odb,Step-1,Increment      0: Step Time =,    0.000,"TUBE-1",         20211,   5.87785E-03,   8.09017E-03,       1.53750,NA,NA,"",  10.00000E-03,   867.362E-21,       1.53750,            0.,            0.
C:/ALETube/PressureUpdate/LargeStep/DeformErode/JobErode.odb,Step-1,Increment      0: Step Time =,    0.000,"TUBE-1",         20177,   7.07107E-03,   7.07107E-03,       1.53750,NA,NA,"",  10.00000E-03,            0.,       1.53750,            0.,            0.
C:/ALETube/PressureUpdate/LargeStep/DeformErode/JobErode.odb,Step-1,Increment      0: Step Time =,    0.000,"TUBE-1",         20375,   5.87785E-03,   8.09017E-03,       1.55000,NA,NA,"",  10.00000E-03,   867.362E-21,       1.55000,            0.,            0.
C:/ALETube/PressureUpdate/LargeStep/DeformErode/JobErode.odb,Step-1,Increment      0: Step Time =,    0.000,"TUBE-1",         20341,   7.07107E-03,   7.07107E-03,       1.55000,NA,NA,"",  10.00000E-03,            0.,       1.55000,            0.,            0.
C:/ALETube/PressureUpdate/LargeStep/DeformErode/JobErode.odb,Step-1,Increment      0: Step Time =,    0.000,"TUBE-1",         20539,   5.87785E-03,   8.09017E-03,        1.5625,NA,NA,"",  10.00000E-03,   867.362E-21,        1.5625,            0.,            0.
C:/ALETube/PressureUpdate/LargeStep/DeformErode/JobErode.odb,Step-1,Increment      0: Step Time =,    0.000,"TUBE-1",         20505,   7.07107E-03,   7.07107E-03,        1.5625,NA,NA,"",  10.00000E-03,            0.,        1.5625,            0.,            0.
C:/ALETube/PressureUpdate/LargeStep/DeformErode/JobErode.odb,Step-1,Increment      0: Step Time =,    0.000,"TUBE-1",         20669,   7.07107E-03,   7.07107E-03,       1.57500,NA,NA,"",  10.00000E-03,            0.,       1.57500,            0.,            0.
C:/ALETube/PressureUpdate/LargeStep/DeformErode/JobErode.odb,Step-1,Increment      0: Step Time =,    0.000,"TUBE-1",         20703,   5.87785E-03,   8.09017E-03,       1.57500,NA,NA,"",  10.00000E-03,   867.362E-21,       1.57500,            0.,            0.
C:/ALETube/PressureUpdate/LargeStep/DeformErode/JobErode.odb,Step-1,Increment      0: Step Time =,    0.000,"TUBE-1",         20867,   5.87785E-03,   8.09017E-03,       1.58750,NA,NA,"",  10.00000E-03,   867.362E-21,       1.58750,            0.,            0.
C:/ALETube/PressureUpdate/LargeStep/DeformErode/JobErode.odb,Step-1,Increment      0: Step Time =,    0.000,"TUBE-1",         20833,   7.07107E-03,   7.07107E-03,       1.58750,NA,NA,"",  10.00000E-03,            0.,       1.58750,            0.,            0.
C:/ALETube/PressureUpdate/LargeStep/DeformErode/JobErode.odb,Step-1,Increment      0: Step Time =,    0.000,"TUBE-1",         21031,   5.87785E-03,   8.09017E-03,       1.60000,NA,NA,"",  10.00000E-03,   867.362E-21,       1.60000,            0.,            0.
C:/ALETube/PressureUpdate/LargeStep/DeformErode/JobErode.odb,Step-1,Increment      0: Step Time =,    0.000,"TUBE-1",         20997,   7.07107E-03,   7.07107E-03,       1.60000,NA,NA,"",  10.00000E-03,            0.,       1.60000,            0.,            0.
C:/ALETube/PressureUpdate/LargeStep/DeformErode/JobErode.odb,Step-1,Increment      0: Step Time =,    0.000,"TUBE-1",         21195,   5.87785E-03,   8.09017E-03,       1.61250,NA,NA,"",  10.00000E-03,   867.362E-21,       1.61250,            0.,            0.
C:/ALETube/PressureUpdate/LargeStep/DeformErode/JobErode.odb,Step-1,Increment      0: Step Time =,    0.000,"TUBE-1",         21161,   7.07107E-03,   7.07107E-03,       1.61250,NA,NA,"",  10.00000E-03,            0.,       1.61250,            0.,            0.
C:/ALETube/PressureUpdate/LargeStep/DeformErode/JobErode.odb,Step-1,Increment      0: Step Time =,    0.000,"TUBE-1",         21359,   5.87785E-03,   8.09017E-03,         1.625,NA,NA,"",  10.00000E-03,   867.362E-21,         1.625,            0.,            0.
C:/ALETube/PressureUpdate/LargeStep/DeformErode/JobErode.odb,Step-1,Increment      0: Step Time =,    0.000,"TUBE-1",         21325,   7.07107E-03,   7.07107E-03,         1.625,NA,NA,"",  10.00000E-03,            0.,         1.625,            0.,            0.
C:/ALETube/PressureUpdate/LargeStep/DeformErode/JobErode.odb,Step-1,Increment      0: Step Time =,    0.000,"TUBE-1",         21489,   7.07107E-03,   7.07107E-03,       1.63750,NA,NA,"",  10.00000E-03,            0.,       1.63750,            0.,            0.
C:/ALETube/PressureUpdate/LargeStep/DeformErode/JobErode.odb,Step-1,Increment      0: Step Time =,    0.000,"TUBE-1",         21523,   5.87785E-03,   8.09017E-03,       1.63750,NA,NA,"",  10.00000E-03,   867.362E-21,       1.63750,            0.,            0.
C:/ALETube/PressureUpdate/LargeStep/DeformErode/JobErode.odb,Step-1,Increment      0: Step Time =,    0.000,"TUBE-1",         21687,   5.87785E-03,   8.09017E-03,       1.65000,NA,NA,"",  10.00000E-03,   867.362E-21,       1.65000,            0.,            0.
C:/ALETube/PressureUpdate/LargeStep/DeformErode/JobErode.odb,Step-1,Increment      0: Step Time =,    0.000,"TUBE-1",         21653,   7.07107E-03,   7.07107E-03,       1.65000,NA,NA,"",  10.00000E-03,            0.,       1.65000,            0.,            0.
C:/ALETube/PressureUpdate/LargeStep/DeformErode/JobErode.odb,Step-1,Increment      0: Step Time =,    0.000,"TUBE-1",         21851,   5.87785E-03,   8.09017E-03,       1.66250,NA,NA,"",  10.00000E-03,   867.362E-21,       1.66250,            0.,            0.
C:/ALETube/PressureUpdate/LargeStep/DeformErode/JobErode.odb,Step-1,Increment      0: Step Time =,    0.000,"TUBE-1",         21817,   7.07107E-03,   7.07107E-03,       1.66250,NA,NA,"",  10.00000E-03,            0.,       1.66250,            0.,            0.
C:/ALETube/PressureUpdate/LargeStep/DeformErode/JobErode.odb,Step-1,Increment      0: Step Time =,    0.000,"TUBE-1",         22015,   5.87785E-03,   8.09017E-03,       1.67500,NA,NA,"",  10.00000E-03,   867.362E-21,       1.67500,            0.,            0.
C:/ALETube/PressureUpdate/LargeStep/DeformErode/JobErode.odb,Step-1,Increment      0: Step Time =,    0.000,"TUBE-1",         21981,   7.07107E-03,   7.07107E-03,       1.67500,NA,NA,"",  10.00000E-03,            0.,       1.67500,            0.,            0.
C:/ALETube/PressureUpdate/LargeStep/DeformErode/JobErode.odb,Step-1,Increment      0: Step Time =,    0.000,"TUBE-1",         22179,   5.87785E-03,   8.09017E-03,        1.6875,NA,NA,"",  10.00000E-03,   867.362E-21,        1.6875,            0.,            0.
C:/ALETube/PressureUpdate/LargeStep/DeformErode/JobErode.odb,Step-1,Increment      0: Step Time =,    0.000,"TUBE-1",         22145,   7.07107E-03,   7.07107E-03,        1.6875,NA,NA,"",  10.00000E-03,            0.,        1.6875,            0.,            0.
C:/ALETube/PressureUpdate/LargeStep/DeformErode/JobErode.odb,Step-1,Increment      0: Step Time =,    0.000,"TUBE-1",         22309,   7.07107E-03,   7.07107E-03,       1.70000,NA,NA,"",  10.00000E-03,            0.,       1.70000,            0.,            0.
C:/ALETube/PressureUpdate/LargeStep/DeformErode/JobErode.odb,Step-1,Increment      0: Step Time =,    0.000,"TUBE-1",         22343,   5.87785E-03,   8.09017E-03,       1.70000,NA,NA,"",  10.00000E-03,   867.362E-21,       1.70000,            0.,            0.
C:/ALETube/PressureUpdate/LargeStep/DeformErode/JobErode.odb,Step-1,Increment      0: Step Time =,    0.000,"TUBE-1",         22507,   5.87785E-03,   8.09017E-03,       1.71250,NA,NA,"",  10.00000E-03,   867.362E-21,       1.71250,            0.,            0.
C:/ALETube/PressureUpdate/LargeStep/DeformErode/JobErode.odb,Step-1,Increment      0: Step Time =,    0.000,"TUBE-1",         22473,   7.07107E-03,   7.07107E-03,       1.71250,NA,NA,"",  10.00000E-03,            0.,       1.71250,            0.,            0.
C:/ALETube/PressureUpdate/LargeStep/DeformErode/JobErode.odb,Step-1,Increment      0: Step Time =,    0.000,"TUBE-1",         22671,   5.87785E-03,   8.09017E-03,       1.72500,NA,NA,"",  10.00000E-03,   867.362E-21,       1.72500,            0.,            0.
C:/ALETube/PressureUpdate/LargeStep/DeformErode/JobErode.odb,Step-1,Increment      0: Step Time =,    0.000,"TUBE-1",         22637,   7.07107E-03,   7.07107E-03,       1.72500,NA,NA,"",  10.00000E-03,            0.,       1.72500,            0.,            0.
C:/ALETube/PressureUpdate/LargeStep/DeformErode/JobErode.odb,Step-1,Increment      0: Step Time =,    0.000,"TUBE-1",         22835,   5.87785E-03,   8.09017E-03,       1.73750,NA,NA,"",  10.00000E-03,   867.362E-21,       1.73750,            0.,            0.
C:/ALETube/PressureUpdate/LargeStep/DeformErode/JobErode.odb,Step-1,Increment      0: Step Time =,    0.000,"TUBE-1",         22801,   7.07107E-03,   7.07107E-03,       1.73750,NA,NA,"",  10.00000E-03,            0.,       1.73750,            0.,            0.
C:/ALETube/PressureUpdate/LargeStep/DeformErode/JobErode.odb,Step-1,Increment      0: Step Time =,    0.000,"TUBE-1",         22999,   5.87785E-03,   8.09017E-03,          1.75,NA,NA,"",  10.00000E-03,   867.362E-21,          1.75,            0.,            0.
C:/ALETube/PressureUpdate/LargeStep/DeformErode/JobErode.odb,Step-1,Increment      0: Step Time =,    0.000,"TUBE-1",         22965,   7.07107E-03,   7.07107E-03,          1.75,NA,NA,"",  10.00000E-03,            0.,          1.75,            0.,            0.
C:/ALETube/PressureUpdate/LargeStep/DeformErode/JobErode.odb,Step-1,Increment      0: Step Time =,    0.000,"TUBE-1",         23129,   7.07107E-03,   7.07107E-03,       1.76250,NA,NA,"",  10.00000E-03,            0.,       1.76250,            0.,            0.
C:/ALETube/PressureUpdate/LargeStep/DeformErode/JobErode.odb,Step-1,Increment      0: Step Time =,    0.000,"TUBE-1",         23163,   5.87785E-03,   8.09017E-03,       1.76250,NA,NA,"",  10.00000E-03,   867.362E-21,       1.76250,            0.,            0.
C:/ALETube/PressureUpdate/LargeStep/DeformErode/JobErode.odb,Step-1,Increment      0: Step Time =,    0.000,"TUBE-1",         23327,   5.87785E-03,   8.09017E-03,       1.77500,NA,NA,"",  10.00000E-03,   867.362E-21,       1.77500,            0.,            0.
C:/ALETube/PressureUpdate/LargeStep/DeformErode/JobErode.odb,Step-1,Increment      0: Step Time =,    0.000,"TUBE-1",         23293,   7.07107E-03,   7.07107E-03,       1.77500,NA,NA,"",  10.00000E-03,            0.,       1.77500,            0.,            0.
C:/ALETube/PressureUpdate/LargeStep/DeformErode/JobErode.odb,Step-1,Increment      0: Step Time =,    0.000,"TUBE-1",         23491,   5.87785E-03,   8.09017E-03,       1.78750,NA,NA,"",  10.00000E-03,   867.362E-21,       1.78750,            0.,            0.
C:/ALETube/PressureUpdate/LargeStep/DeformErode/JobErode.odb,Step-1,Increment      0: Step Time =,    0.000,"TUBE-1",         23457,   7.07107E-03,   7.07107E-03,       1.78750,NA,NA,"",  10.00000E-03,            0.,       1.78750,            0.,            0.
C:/ALETube/PressureUpdate/LargeStep/DeformErode/JobErode.odb,Step-1,Increment      0: Step Time =,    0.000,"TUBE-1",         23655,   5.87785E-03,   8.09017E-03,       1.80000,NA,NA,"",  10.00000E-03,   867.362E-21,       1.80000,            0.,            0.
C:/ALETube/PressureUpdate/LargeStep/DeformErode/JobErode.odb,Step-1,Increment      0: Step Time =,    0.000,"TUBE-1",         23621,   7.07107E-03,   7.07107E-03,       1.80000,NA,NA,"",  10.00000E-03,            0.,       1.80000,            0.,            0.
C:/ALETube/PressureUpdate/LargeStep/DeformErode/JobErode.odb,Step-1,Increment      0: Step Time =,    0.000,"TUBE-1",         23819,   5.87785E-03,   8.09017E-03,        1.8125,NA,NA,"",  10.00000E-03,   867.362E-21,        1.8125,            0.,            0.
C:/ALETube/PressureUpdate/LargeStep/DeformErode/JobErode.odb,Step-1,Increment      0: Step Time =,    0.000,"TUBE-1",         23785,   7.07107E-03,   7.07107E-03,        1.8125,NA,NA,"",  10.00000E-03,            0.,        1.8125,            0.,            0.
C:/ALETube/PressureUpdate/LargeStep/DeformErode/JobErode.odb,Step-1,Increment      0: Step Time =,    0.000,"TUBE-1",         23949,   7.07107E-03,   7.07107E-03,       1.82500,NA,NA,"",  10.00000E-03,            0.,       1.82500,            0.,            0.
C:/ALETube/PressureUpdate/LargeStep/DeformErode/JobErode.odb,Step-1,Increment      0: Step Time =,    0.000,"TUBE-1",         23983,   5.87785E-03,   8.09017E-03,       1.82500,NA,NA,"",  10.00000E-03,   867.362E-21,       1.82500,            0.,            0.
C:/ALETube/PressureUpdate/LargeStep/DeformErode/JobErode.odb,Step-1,Increment      0: Step Time =,    0.000,"TUBE-1",         24147,   5.87785E-03,   8.09017E-03,       1.83750,NA,NA,"",  10.00000E-03,   867.362E-21,       1.83750,            0.,            0.
C:/ALETube/PressureUpdate/LargeStep/DeformErode/JobErode.odb,Step-1,Increment      0: Step Time =,    0.000,"TUBE-1",         24113,   7.07107E-03,   7.07107E-03,       1.83750,NA,NA,"",  10.00000E-03,            0.,       1.83750,            0.,            0.
C:/ALETube/PressureUpdate/LargeStep/DeformErode/JobErode.odb,Step-1,Increment      0: Step Time =,    0.000,"TUBE-1",         24311,   5.87785E-03,   8.09017E-03,       1.85000,NA,NA,"",  10.00000E-03,   867.362E-21,       1.85000,            0.,            0.
C:/ALETube/PressureUpdate/LargeStep/DeformErode/JobErode.odb,Step-1,Increment      0: Step Time =,    0.000,"TUBE-1",         24277,   7.07107E-03,   7.07107E-03,       1.85000,NA,NA,"",  10.00000E-03,            0.,       1.85000,            0.,            0.
C:/ALETube/PressureUpdate/LargeStep/DeformErode/JobErode.odb,Step-1,Increment      0: Step Time =,    0.000,"TUBE-1",         24475,   5.87785E-03,   8.09017E-03,       1.86250,NA,NA,"",  10.00000E-03,   867.362E-21,       1.86250,            0.,            0.
C:/ALETube/PressureUpdate/LargeStep/DeformErode/JobErode.odb,Step-1,Increment      0: Step Time =,    0.000,"TUBE-1",         24441,   7.07107E-03,   7.07107E-03,       1.86250,NA,NA,"",  10.00000E-03,            0.,       1.86250,            0.,            0.
C:/ALETube/PressureUpdate/LargeStep/DeformErode/JobErode.odb,Step-1,Increment      0: Step Time =,    0.000,"TUBE-1",         24639,   5.87785E-03,   8.09017E-03,         1.875,NA,NA,"",  10.00000E-03,   867.362E-21,         1.875,            0.,            0.
C:/ALETube/PressureUpdate/LargeStep/DeformErode/JobErode.odb,Step-1,Increment      0: Step Time =,    0.000,"TUBE-1",         24605,   7.07107E-03,   7.07107E-03,         1.875,NA,NA,"",  10.00000E-03,            0.,         1.875,            0.,            0.
C:/ALETube/PressureUpdate/LargeStep/DeformErode/JobErode.odb,Step-1,Increment      0: Step Time =,    0.000,"TUBE-1",         24769,   7.07107E-03,   7.07107E-03,       1.88750,NA,NA,"",  10.00000E-03,            0.,       1.88750,            0.,            0.
C:/ALETube/PressureUpdate/LargeStep/DeformErode/JobErode.odb,Step-1,Increment      0: Step Time =,    0.000,"TUBE-1",         24803,   5.87785E-03,   8.09017E-03,       1.88750,NA,NA,"",  10.00000E-03,   867.362E-21,       1.88750,            0.,            0.
C:/ALETube/PressureUpdate/LargeStep/DeformErode/JobErode.odb,Step-1,Increment      0: Step Time =,    0.000,"TUBE-1",         24967,   5.87785E-03,   8.09017E-03,       1.90000,NA,NA,"",  10.00000E-03,   867.362E-21,       1.90000,            0.,            0.
C:/ALETube/PressureUpdate/LargeStep/DeformErode/JobErode.odb,Step-1,Increment      0: Step Time =,    0.000,"TUBE-1",         24933,   7.07107E-03,   7.07107E-03,       1.90000,NA,NA,"",  10.00000E-03,            0.,       1.90000,            0.,            0.
C:/ALETube/PressureUpdate/LargeStep/DeformErode/JobErode.odb,Step-1,Increment      0: Step Time =,    0.000,"TUBE-1",         25131,   5.87785E-03,   8.09017E-03,       1.91250,NA,NA,"",  10.00000E-03,   867.362E-21,       1.91250,            0.,            0.
C:/ALETube/PressureUpdate/LargeStep/DeformErode/JobErode.odb,Step-1,Increment      0: Step Time =,    0.000,"TUBE-1",         25097,   7.07107E-03,   7.07107E-03,       1.91250,NA,NA,"",  10.00000E-03,            0.,       1.91250,            0.,            0.
C:/ALETube/PressureUpdate/LargeStep/DeformErode/JobErode.odb,Step-1,Increment      0: Step Time =,    0.000,"TUBE-1",         25295,   5.87785E-03,   8.09017E-03,       1.92500,NA,NA,"",  10.00000E-03,   867.362E-21,       1.92500,            0.,            0.
C:/ALETube/PressureUpdate/LargeStep/DeformErode/JobErode.odb,Step-1,Increment      0: Step Time =,    0.000,"TUBE-1",         25261,   7.07107E-03,   7.07107E-03,       1.92500,NA,NA,"",  10.00000E-03,            0.,       1.92500,            0.,            0.
C:/ALETube/PressureUpdate/LargeStep/DeformErode/JobErode.odb,Step-1,Increment      0: Step Time =,    0.000,"TUBE-1",         25459,   5.87785E-03,   8.09017E-03,        1.9375,NA,NA,"",  10.00000E-03,   867.362E-21,        1.9375,            0.,            0.
C:/ALETube/PressureUpdate/LargeStep/DeformErode/JobErode.odb,Step-1,Increment      0: Step Time =,    0.000,"TUBE-1",         25425,   7.07107E-03,   7.07107E-03,        1.9375,NA,NA,"",  10.00000E-03,            0.,        1.9375,            0.,            0.
C:/ALETube/PressureUpdate/LargeStep/DeformErode/JobErode.odb,Step-1,Increment      0: Step Time =,    0.000,"TUBE-1",         25589,   7.07107E-03,   7.07107E-03,       1.95000,NA,NA,"",  10.00000E-03,            0.,       1.95000,            0.,            0.
C:/ALETube/PressureUpdate/LargeStep/DeformErode/JobErode.odb,Step-1,Increment      0: Step Time =,    0.000,"TUBE-1",         25623,   5.87785E-03,   8.09017E-03,       1.95000,NA,NA,"",  10.00000E-03,   867.362E-21,       1.95000,            0.,            0.
C:/ALETube/PressureUpdate/LargeStep/DeformErode/JobErode.odb,Step-1,Increment      0: Step Time =,    0.000,"TUBE-1",         25787,   5.87785E-03,   8.09017E-03,       1.96250,NA,NA,"",  10.00000E-03,   867.362E-21,       1.96250,            0.,            0.
C:/ALETube/PressureUpdate/LargeStep/DeformErode/JobErode.odb,Step-1,Increment      0: Step Time =,    0.000,"TUBE-1",         25753,   7.07107E-03,   7.07107E-03,       1.96250,NA,NA,"",  10.00000E-03,            0.,       1.96250,            0.,            0.
C:/ALETube/PressureUpdate/LargeStep/DeformErode/JobErode.odb,Step-1,Increment      0: Step Time =,    0.000,"TUBE-1",         25951,   5.87785E-03,   8.09017E-03,       1.97500,NA,NA,"",  10.00000E-03,   867.362E-21,       1.97500,            0.,            0.
C:/ALETube/PressureUpdate/LargeStep/DeformErode/JobErode.odb,Step-1,Increment      0: Step Time =,    0.000,"TUBE-1",         25917,   7.07107E-03,   7.07107E-03,       1.97500,NA,NA,"",  10.00000E-03,            0.,       1.97500,            0.,            0.
C:/ALETube/PressureUpdate/LargeStep/DeformErode/JobErode.odb,Step-1,Increment      0: Step Time =,    0.000,"TUBE-1",         26115,   5.87785E-03,   8.09017E-03,       1.98750,NA,NA,"",  10.00000E-03,   867.362E-21,       1.98750,            0.,            0.
C:/ALETube/PressureUpdate/LargeStep/DeformErode/JobErode.odb,Step-1,Increment      0: Step Time =,    0.000,"TUBE-1",         26081,   7.07107E-03,   7.07107E-03,       1.98750,NA,NA,"",  10.00000E-03,            0.,       1.98750,            0.,            0.
C:/ALETube/PressureUpdate/LargeStep/DeformErode/JobErode.odb,Step-1,Increment      0: Step Time =,    0.000,"TUBE-1",         26279,   5.87785E-03,   8.09017E-03,            2.,NA,NA,"",  10.00000E-03,   867.362E-21,            2.,            0.,            0.
C:/ALETube/PressureUpdate/LargeStep/DeformErode/JobErode.odb,Step-1,Increment      0: Step Time =,    0.000,"TUBE-1",         26245,   7.07107E-03,   7.07107E-03,            2.,NA,NA,"",  10.00000E-03,            0.,            2.,            0.,            0.
C:/ALETube/PressureUpdate/LargeStep/DeformErode/JobErode.odb,Step-1,Increment      1: Step Time =,    10.00,"TUBE-1",            39,   5.87785E-03,   8.09017E-03,            0.,NA,NA,"",  10.00000E-03,   867.362E-21,            0.,            0.,            0.
C:/ALETube/PressureUpdate/LargeStep/DeformErode/JobErode.odb,Step-1,Increment      1: Step Time =,    10.00,"TUBE-1",             5,   7.07107E-03,   7.07107E-03,            0.,NA,NA,"",  10.00000E-03,            0.,            0.,            0.,            0.
C:/ALETube/PressureUpdate/LargeStep/DeformErode/JobErode.odb,Step-1,Increment      1: Step Time =,    10.00,"TUBE-1",           203,   5.87785E-03,   8.09017E-03,   12.5000E-03,NA,NA,"",  10.00000E-03,   867.362E-21,   12.5000E-03,            0.,            0.
C:/ALETube/PressureUpdate/LargeStep/DeformErode/JobErode.odb,Step-1,Increment      1: Step Time =,    10.00,"TUBE-1",           169,   7.07107E-03,   7.07107E-03,   12.5000E-03,NA,NA,"",  10.00000E-03,            0.,   12.5000E-03,            0.,            0.
C:/ALETube/PressureUpdate/LargeStep/DeformErode/JobErode.odb,Step-1,Increment      1: Step Time =,    10.00,"TUBE-1",           333,   7.07107E-03,   7.07107E-03,   25.0000E-03,NA,NA,"",  10.00000E-03,            0.,   25.0000E-03,            0.,            0.
C:/ALETube/PressureUpdate/LargeStep/DeformErode/JobErode.odb,Step-1,Increment      1: Step Time =,    10.00,"TUBE-1",           367,   5.87785E-03,   8.09017E-03,   25.0000E-03,NA,NA,"",  10.00000E-03,   867.362E-21,   25.0000E-03,            0.,            0.
C:/ALETube/PressureUpdate/LargeStep/DeformErode/JobErode.odb,Step-1,Increment      1: Step Time =,    10.00,"TUBE-1",           531,   5.87785E-03,   8.09017E-03,   37.5000E-03,NA,NA,"",  10.00000E-03,   867.362E-21,   37.5000E-03,            0.,            0.
C:/ALETube/PressureUpdate/LargeStep/DeformErode/JobErode.odb,Step-1,Increment      1: Step Time =,    10.00,"TUBE-1",           497,   7.07107E-03,   7.07107E-03,   37.5000E-03,NA,NA,"",  10.00000E-03,            0.,   37.5000E-03,            0.,            0.
C:/ALETube/PressureUpdate/LargeStep/DeformErode/JobErode.odb,Step-1,Increment      1: Step Time =,    10.00,"TUBE-1",           695,   5.87785E-03,   8.09017E-03,   50.0000E-03,NA,NA,"",  10.00000E-03,   867.362E-21,   50.0000E-03,            0.,            0.
C:/ALETube/PressureUpdate/LargeStep/DeformErode/JobErode.odb,Step-1,Increment      1: Step Time =,    10.00,"TUBE-1",           661,   7.07107E-03,   7.07107E-03,   50.0000E-03,NA,NA,"",  10.00000E-03,            0.,   50.0000E-03,            0.,            0.
C:/ALETube/PressureUpdate/LargeStep/DeformErode/JobErode.odb,Step-1,Increment      1: Step Time =,    10.00,"TUBE-1",           825,   7.07107E-03,   7.07107E-03,      62.5E-03,NA,NA,"",  10.00000E-03,            0.,      62.5E-03,            0.,            0.
C:/ALETube/PressureUpdate/LargeStep/DeformErode/JobErode.odb,Step-1,Increment      1: Step Time =,    10.00,"TUBE-1",           859,   5.87785E-03,   8.09017E-03,      62.5E-03,NA,NA,"",  10.00000E-03,   867.362E-21,      62.5E-03,            0.,            0.
C:/ALETube/PressureUpdate/LargeStep/DeformErode/JobErode.odb,Step-1,Increment      1: Step Time =,    10.00,"TUBE-1",          1023,   5.87785E-03,   8.09017E-03,   75.0000E-03,NA,NA,"",  10.00000E-03,   867.362E-21,   75.0000E-03,            0.,            0.
C:/ALETube/PressureUpdate/LargeStep/DeformErode/JobErode.odb,Step-1,Increment      1: Step Time =,    10.00,"TUBE-1",           989,   7.07107E-03,   7.07107E-03,   75.0000E-03,NA,NA,"",  10.00000E-03,            0.,   75.0000E-03,            0.,            0.
C:/ALETube/PressureUpdate/LargeStep/DeformErode/JobErode.odb,Step-1,Increment      1: Step Time =,    10.00,"TUBE-1",          1187,   5.87785E-03,   8.09017E-03,   87.5000E-03,NA,NA,"",  10.00000E-03,   867.362E-21,   87.5000E-03,            0.,            0.
C:/ALETube/PressureUpdate/LargeStep/DeformErode/JobErode.odb,Step-1,Increment      1: Step Time =,    10.00,"TUBE-1",          1153,   7.07107E-03,   7.07107E-03,   87.5000E-03,NA,NA,"",  10.00000E-03,            0.,   87.5000E-03,            0.,            0.
C:/ALETube/PressureUpdate/LargeStep/DeformErode/JobErode.odb,Step-1,Increment      1: Step Time =,    10.00,"TUBE-1",          1351,   5.87785E-03,   8.09017E-03,   100.000E-03,NA,NA,"",  10.00000E-03,   867.362E-21,   100.000E-03,            0.,            0.
C:/ALETube/PressureUpdate/LargeStep/DeformErode/JobErode.odb,Step-1,Increment      1: Step Time =,    10.00,"TUBE-1",          1317,   7.07107E-03,   7.07107E-03,   100.000E-03,NA,NA,"",  10.00000E-03,            0.,   100.000E-03,            0.,            0.
C:/ALETube/PressureUpdate/LargeStep/DeformErode/JobErode.odb,Step-1,Increment      1: Step Time =,    10.00,"TUBE-1",          1515,   5.87785E-03,   8.09017E-03,   112.500E-03,NA,NA,"",  10.00000E-03,   867.362E-21,   112.500E-03,            0.,            0.
C:/ALETube/PressureUpdate/LargeStep/DeformErode/JobErode.odb,Step-1,Increment      1: Step Time =,    10.00,"TUBE-1",          1481,   7.07107E-03,   7.07107E-03,   112.500E-03,NA,NA,"",  10.00000E-03,            0.,   112.500E-03,            0.,            0.
C:/ALETube/PressureUpdate/LargeStep/DeformErode/JobErode.odb,Step-1,Increment      1: Step Time =,    10.00,"TUBE-1",          1645,   7.07107E-03,   7.07107E-03,      125.E-03,NA,NA,"",  10.00000E-03,            0.,      125.E-03,            0.,            0.
C:/ALETube/PressureUpdate/LargeStep/DeformErode/JobErode.odb,Step-1,Increment      1: Step Time =,    10.00,"TUBE-1",          1679,   5.87785E-03,   8.09017E-03,      125.E-03,NA,NA,"",  10.00000E-03,   867.362E-21,      125.E-03,            0.,            0.
C:/ALETube/PressureUpdate/LargeStep/DeformErode/JobErode.odb,Step-1,Increment      1: Step Time =,    10.00,"TUBE-1",          1843,   5.87785E-03,   8.09017E-03,   137.500E-03,NA,NA,"",  10.00000E-03,   867.362E-21,   137.500E-03,            0.,            0.
C:/ALETube/PressureUpdate/LargeStep/DeformErode/JobErode.odb,Step-1,Increment      1: Step Time =,    10.00,"TUBE-1",          1809,   7.07107E-03,   7.07107E-03,   137.500E-03,NA,NA,"",  10.00000E-03,            0.,   137.500E-03,            0.,            0.
C:/ALETube/PressureUpdate/LargeStep/DeformErode/JobErode.odb,Step-1,Increment      1: Step Time =,    10.00,"TUBE-1",          2007,   5.87785E-03,   8.09017E-03,   150.000E-03,NA,NA,"",  10.00000E-03,   867.362E-21,   150.000E-03,            0.,            0.
C:/ALETube/PressureUpdate/LargeStep/DeformErode/JobErode.odb,Step-1,Increment      1: Step Time =,    10.00,"TUBE-1",          1973,   7.07107E-03,   7.07107E-03,   150.000E-03,NA,NA,"",  10.00000E-03,            0.,   150.000E-03,            0.,            0.
C:/ALETube/PressureUpdate/LargeStep/DeformErode/JobErode.odb,Step-1,Increment      1: Step Time =,    10.00,"TUBE-1",          2171,   5.87785E-03,   8.09017E-03,   162.500E-03,NA,NA,"",  10.00000E-03,   867.362E-21,   162.500E-03,            0.,            0.
C:/ALETube/PressureUpdate/LargeStep/DeformErode/JobErode.odb,Step-1,Increment      1: Step Time =,    10.00,"TUBE-1",          2137,   7.07107E-03,   7.07107E-03,   162.500E-03,NA,NA,"",  10.00000E-03,            0.,   162.500E-03,            0.,            0.
C:/ALETube/PressureUpdate/LargeStep/DeformErode/JobErode.odb,Step-1,Increment      1: Step Time =,    10.00,"TUBE-1",          2335,   5.87785E-03,   8.09017E-03,   175.000E-03,NA,NA,"",  10.00000E-03,   867.362E-21,   175.000E-03,            0.,            0.
C:/ALETube/PressureUpdate/LargeStep/DeformErode/JobErode.odb,Step-1,Increment      1: Step Time =,    10.00,"TUBE-1",          2301,   7.07107E-03,   7.07107E-03,   175.000E-03,NA,NA,"",  10.00000E-03,            0.,   175.000E-03,            0.,            0.
C:/ALETube/PressureUpdate/LargeStep/DeformErode/JobErode.odb,Step-1,Increment      1: Step Time =,    10.00,"TUBE-1",          2465,   7.07107E-03,   7.07107E-03,     187.5E-03,NA,NA,"",  10.00000E-03,            0.,     187.5E-03,            0.,            0.
C:/ALETube/PressureUpdate/LargeStep/DeformErode/JobErode.odb,Step-1,Increment      1: Step Time =,    10.00,"TUBE-1",          2499,   5.87785E-03,   8.09017E-03,     187.5E-03,NA,NA,"",  10.00000E-03,   867.362E-21,     187.5E-03,            0.,            0.
C:/ALETube/PressureUpdate/LargeStep/DeformErode/JobErode.odb,Step-1,Increment      1: Step Time =,    10.00,"TUBE-1",          2663,   5.87785E-03,   8.09017E-03,   200.000E-03,NA,NA,"",  10.00000E-03,   867.362E-21,   200.000E-03,            0.,            0.
C:/ALETube/PressureUpdate/LargeStep/DeformErode/JobErode.odb,Step-1,Increment      1: Step Time =,    10.00,"TUBE-1",          2629,   7.07107E-03,   7.07107E-03,   200.000E-03,NA,NA,"",  10.00000E-03,            0.,   200.000E-03,            0.,            0.
C:/ALETube/PressureUpdate/LargeStep/DeformErode/JobErode.odb,Step-1,Increment      1: Step Time =,    10.00,"TUBE-1",          2827,   5.87785E-03,   8.09017E-03,   212.500E-03,NA,NA,"",  10.00000E-03,   867.362E-21,   212.500E-03,            0.,            0.
C:/ALETube/PressureUpdate/LargeStep/DeformErode/JobErode.odb,Step-1,Increment      1: Step Time =,    10.00,"TUBE-1",          2793,   7.07107E-03,   7.07107E-03,   212.500E-03,NA,NA,"",  10.00000E-03,            0.,   212.500E-03,            0.,            0.
C:/ALETube/PressureUpdate/LargeStep/DeformErode/JobErode.odb,Step-1,Increment      1: Step Time =,    10.00,"TUBE-1",          2991,   5.87785E-03,   8.09017E-03,   225.000E-03,NA,NA,"",  10.00000E-03,   867.362E-21,   225.000E-03,            0.,            0.
C:/ALETube/PressureUpdate/LargeStep/DeformErode/JobErode.odb,Step-1,Increment      1: Step Time =,    10.00,"TUBE-1",          2957,   7.07107E-03,   7.07107E-03,   225.000E-03,NA,NA,"",  10.00000E-03,            0.,   225.000E-03,            0.,            0.
C:/ALETube/PressureUpdate/LargeStep/DeformErode/JobErode.odb,Step-1,Increment      1: Step Time =,    10.00,"TUBE-1",          3155,   5.87785E-03,   8.09017E-03,   237.500E-03,NA,NA,"",  10.00000E-03,   867.362E-21,   237.500E-03,            0.,            0.
C:/ALETube/PressureUpdate/LargeStep/DeformErode/JobErode.odb,Step-1,Increment      1: Step Time =,    10.00,"TUBE-1",          3121,   7.07107E-03,   7.07107E-03,   237.500E-03,NA,NA,"",  10.00000E-03,            0.,   237.500E-03,            0.,            0.
C:/ALETube/PressureUpdate/LargeStep/DeformErode/JobErode.odb,Step-1,Increment      1: Step Time =,    10.00,"TUBE-1",          3285,   7.07107E-03,   7.07107E-03,      250.E-03,NA,NA,"",  10.00000E-03,            0.,      250.E-03,            0.,            0.
C:/ALETube/PressureUpdate/LargeStep/DeformErode/JobErode.odb,Step-1,Increment      1: Step Time =,    10.00,"TUBE-1",          3319,   5.87785E-03,   8.09017E-03,      250.E-03,NA,NA,"",  10.00000E-03,   867.362E-21,      250.E-03,            0.,            0.
C:/ALETube/PressureUpdate/LargeStep/DeformErode/JobErode.odb,Step-1,Increment      1: Step Time =,    10.00,"TUBE-1",          3483,   5.87785E-03,   8.09017E-03,   262.500E-03,NA,NA,"",  10.00000E-03,   867.362E-21,   262.500E-03,            0.,            0.
C:/ALETube/PressureUpdate/LargeStep/DeformErode/JobErode.odb,Step-1,Increment      1: Step Time =,    10.00,"TUBE-1",          3449,   7.07107E-03,   7.07107E-03,   262.500E-03,NA,NA,"",  10.00000E-03,            0.,   262.500E-03,            0.,            0.
C:/ALETube/PressureUpdate/LargeStep/DeformErode/JobErode.odb,Step-1,Increment      1: Step Time =,    10.00,"TUBE-1",          3647,   5.87785E-03,   8.09017E-03,   275.000E-03,NA,NA,"",  10.00000E-03,   867.362E-21,   275.000E-03,            0.,            0.
C:/ALETube/PressureUpdate/LargeStep/DeformErode/JobErode.odb,Step-1,Increment      1: Step Time =,    10.00,"TUBE-1",          3613,   7.07107E-03,   7.07107E-03,   275.000E-03,NA,NA,"",  10.00000E-03,            0.,   275.000E-03,            0.,            0.
C:/ALETube/PressureUpdate/LargeStep/DeformErode/JobErode.odb,Step-1,Increment      1: Step Time =,    10.00,"TUBE-1",          3811,   5.87785E-03,   8.09017E-03,   287.500E-03,NA,NA,"",  10.00000E-03,   867.362E-21,   287.500E-03,            0.,            0.
C:/ALETube/PressureUpdate/LargeStep/DeformErode/JobErode.odb,Step-1,Increment      1: Step Time =,    10.00,"TUBE-1",          3777,   7.07107E-03,   7.07107E-03,   287.500E-03,NA,NA,"",  10.00000E-03,            0.,   287.500E-03,            0.,            0.
C:/ALETube/PressureUpdate/LargeStep/DeformErode/JobErode.odb,Step-1,Increment      1: Step Time =,    10.00,"TUBE-1",          3975,   5.87785E-03,   8.09017E-03,   300.000E-03,NA,NA,"",  10.00000E-03,   867.362E-21,   300.000E-03,            0.,            0.
C:/ALETube/PressureUpdate/LargeStep/DeformErode/JobErode.odb,Step-1,Increment      1: Step Time =,    10.00,"TUBE-1",          3941,   7.07107E-03,   7.07107E-03,   300.000E-03,NA,NA,"",  10.00000E-03,            0.,   300.000E-03,            0.,            0.
C:/ALETube/PressureUpdate/LargeStep/DeformErode/JobErode.odb,Step-1,Increment      1: Step Time =,    10.00,"TUBE-1",          4105,   7.07107E-03,   7.07107E-03,     312.5E-03,NA,NA,"",  10.00000E-03,            0.,     312.5E-03,            0.,            0.
C:/ALETube/PressureUpdate/LargeStep/DeformErode/JobErode.odb,Step-1,Increment      1: Step Time =,    10.00,"TUBE-1",          4139,   5.87785E-03,   8.09017E-03,     312.5E-03,NA,NA,"",  10.00000E-03,   867.362E-21,     312.5E-03,            0.,            0.
C:/ALETube/PressureUpdate/LargeStep/DeformErode/JobErode.odb,Step-1,Increment      1: Step Time =,    10.00,"TUBE-1",          4303,   5.87785E-03,   8.09017E-03,   325.000E-03,NA,NA,"",  10.00000E-03,   867.362E-21,   325.000E-03,            0.,            0.
C:/ALETube/PressureUpdate/LargeStep/DeformErode/JobErode.odb,Step-1,Increment      1: Step Time =,    10.00,"TUBE-1",          4269,   7.07107E-03,   7.07107E-03,   325.000E-03,NA,NA,"",  10.00000E-03,            0.,   325.000E-03,            0.,            0.
C:/ALETube/PressureUpdate/LargeStep/DeformErode/JobErode.odb,Step-1,Increment      1: Step Time =,    10.00,"TUBE-1",          4467,   5.87785E-03,   8.09017E-03,   337.500E-03,NA,NA,"",  10.00000E-03,   867.362E-21,   337.500E-03,            0.,            0.
C:/ALETube/PressureUpdate/LargeStep/DeformErode/JobErode.odb,Step-1,Increment      1: Step Time =,    10.00,"TUBE-1",          4433,   7.07107E-03,   7.07107E-03,   337.500E-03,NA,NA,"",  10.00000E-03,            0.,   337.500E-03,            0.,            0.
C:/ALETube/PressureUpdate/LargeStep/DeformErode/JobErode.odb,Step-1,Increment      1: Step Time =,    10.00,"TUBE-1",          4631,   5.87785E-03,   8.09017E-03,   350.000E-03,NA,NA,"",  10.00000E-03,   867.362E-21,   350.000E-03,            0.,            0.
C:/ALETube/PressureUpdate/LargeStep/DeformErode/JobErode.odb,Step-1,Increment      1: Step Time =,    10.00,"TUBE-1",          4597,   7.07107E-03,   7.07107E-03,   350.000E-03,NA,NA,"",  10.00000E-03,            0.,   350.000E-03,            0.,            0.
C:/ALETube/PressureUpdate/LargeStep/DeformErode/JobErode.odb,Step-1,Increment      1: Step Time =,    10.00,"TUBE-1",          4795,   5.87785E-03,   8.09017E-03,   362.500E-03,NA,NA,"",  10.00000E-03,   867.362E-21,   362.500E-03,            0.,            0.
C:/ALETube/PressureUpdate/LargeStep/DeformErode/JobErode.odb,Step-1,Increment      1: Step Time =,    10.00,"TUBE-1",          4761,   7.07107E-03,   7.07107E-03,   362.500E-03,NA,NA,"",  10.00000E-03,            0.,   362.500E-03,            0.,            0.
C:/ALETube/PressureUpdate/LargeStep/DeformErode/JobErode.odb,Step-1,Increment      1: Step Time =,    10.00,"TUBE-1",          4925,   7.07107E-03,   7.07107E-03,      375.E-03,NA,NA,"",  10.00000E-03,            0.,      375.E-03,            0.,            0.
C:/ALETube/PressureUpdate/LargeStep/DeformErode/JobErode.odb,Step-1,Increment      1: Step Time =,    10.00,"TUBE-1",          4959,   5.87785E-03,   8.09017E-03,      375.E-03,NA,NA,"",  10.00000E-03,   867.362E-21,      375.E-03,            0.,            0.
C:/ALETube/PressureUpdate/LargeStep/DeformErode/JobErode.odb,Step-1,Increment      1: Step Time =,    10.00,"TUBE-1",          5123,   5.87785E-03,   8.09017E-03,   387.500E-03,NA,NA,"",  10.00000E-03,   867.362E-21,   387.500E-03,            0.,            0.
C:/ALETube/PressureUpdate/LargeStep/DeformErode/JobErode.odb,Step-1,Increment      1: Step Time =,    10.00,"TUBE-1",          5089,   7.07107E-03,   7.07107E-03,   387.500E-03,NA,NA,"",  10.00000E-03,            0.,   387.500E-03,            0.,            0.
C:/ALETube/PressureUpdate/LargeStep/DeformErode/JobErode.odb,Step-1,Increment      1: Step Time =,    10.00,"TUBE-1",          5287,   5.87785E-03,   8.09017E-03,   400.000E-03,NA,NA,"",  10.00000E-03,   867.362E-21,   400.000E-03,            0.,            0.
C:/ALETube/PressureUpdate/LargeStep/DeformErode/JobErode.odb,Step-1,Increment      1: Step Time =,    10.00,"TUBE-1",          5253,   7.07107E-03,   7.07107E-03,   400.000E-03,NA,NA,"",  10.00000E-03,            0.,   400.000E-03,            0.,            0.
C:/ALETube/PressureUpdate/LargeStep/DeformErode/JobErode.odb,Step-1,Increment      1: Step Time =,    10.00,"TUBE-1",          5451,   5.87785E-03,   8.09017E-03,   412.500E-03,NA,NA,"",  10.00000E-03,   867.362E-21,   412.500E-03,            0.,            0.
C:/ALETube/PressureUpdate/LargeStep/DeformErode/JobErode.odb,Step-1,Increment      1: Step Time =,    10.00,"TUBE-1",          5417,   7.07107E-03,   7.07107E-03,   412.500E-03,NA,NA,"",  10.00000E-03,            0.,   412.500E-03,            0.,            0.
C:/ALETube/PressureUpdate/LargeStep/DeformErode/JobErode.odb,Step-1,Increment      1: Step Time =,    10.00,"TUBE-1",          5615,   5.87785E-03,   8.09017E-03,   425.000E-03,NA,NA,"",  10.00000E-03,   867.362E-21,   425.000E-03,            0.,            0.
C:/ALETube/PressureUpdate/LargeStep/DeformErode/JobErode.odb,Step-1,Increment      1: Step Time =,    10.00,"TUBE-1",          5581,   7.07107E-03,   7.07107E-03,   425.000E-03,NA,NA,"",  10.00000E-03,            0.,   425.000E-03,            0.,            0.
C:/ALETube/PressureUpdate/LargeStep/DeformErode/JobErode.odb,Step-1,Increment      1: Step Time =,    10.00,"TUBE-1",          5745,   7.07107E-03,   7.07107E-03,     437.5E-03,NA,NA,"",  10.00000E-03,            0.,     437.5E-03,            0.,            0.
C:/ALETube/PressureUpdate/LargeStep/DeformErode/JobErode.odb,Step-1,Increment      1: Step Time =,    10.00,"TUBE-1",          5779,   5.87785E-03,   8.09017E-03,     437.5E-03,NA,NA,"",  10.00000E-03,   867.362E-21,     437.5E-03,            0.,            0.
C:/ALETube/PressureUpdate/LargeStep/DeformErode/JobErode.odb,Step-1,Increment      1: Step Time =,    10.00,"TUBE-1",          5943,   5.87785E-03,   8.09017E-03,   450.000E-03,NA,NA,"",  10.00000E-03,   867.362E-21,   450.000E-03,            0.,            0.
C:/ALETube/PressureUpdate/LargeStep/DeformErode/JobErode.odb,Step-1,Increment      1: Step Time =,    10.00,"TUBE-1",          5909,   7.07107E-03,   7.07107E-03,   450.000E-03,NA,NA,"",  10.00000E-03,            0.,   450.000E-03,            0.,            0.
C:/ALETube/PressureUpdate/LargeStep/DeformErode/JobErode.odb,Step-1,Increment      1: Step Time =,    10.00,"TUBE-1",          6107,   5.87785E-03,   8.09017E-03,   462.500E-03,NA,NA,"",  10.00000E-03,   867.362E-21,   462.500E-03,            0.,            0.
C:/ALETube/PressureUpdate/LargeStep/DeformErode/JobErode.odb,Step-1,Increment      1: Step Time =,    10.00,"TUBE-1",          6073,   7.07107E-03,   7.07107E-03,   462.500E-03,NA,NA,"",  10.00000E-03,            0.,   462.500E-03,            0.,            0.
C:/ALETube/PressureUpdate/LargeStep/DeformErode/JobErode.odb,Step-1,Increment      1: Step Time =,    10.00,"TUBE-1",          6271,   5.87785E-03,   8.09017E-03,   475.000E-03,NA,NA,"",  10.00000E-03,   867.362E-21,   475.000E-03,            0.,            0.
C:/ALETube/PressureUpdate/LargeStep/DeformErode/JobErode.odb,Step-1,Increment      1: Step Time =,    10.00,"TUBE-1",          6237,   7.07107E-03,   7.07107E-03,   475.000E-03,NA,NA,"",  10.00000E-03,            0.,   475.000E-03,            0.,            0.
C:/ALETube/PressureUpdate/LargeStep/DeformErode/JobErode.odb,Step-1,Increment      1: Step Time =,    10.00,"TUBE-1",          6435,   5.87785E-03,   8.09017E-03,   487.500E-03,NA,NA,"",  10.00000E-03,   867.362E-21,   487.500E-03,            0.,            0.
C:/ALETube/PressureUpdate/LargeStep/DeformErode/JobErode.odb,Step-1,Increment      1: Step Time =,    10.00,"TUBE-1",          6401,   7.07107E-03,   7.07107E-03,   487.500E-03,NA,NA,"",  10.00000E-03,            0.,   487.500E-03,            0.,            0.
C:/ALETube/PressureUpdate/LargeStep/DeformErode/JobErode.odb,Step-1,Increment      1: Step Time =,    10.00,"TUBE-1",          6565,   7.07107E-03,   7.07107E-03,      500.E-03,NA,NA,"",  10.00000E-03,            0.,      500.E-03,            0.,            0.
C:/ALETube/PressureUpdate/LargeStep/DeformErode/JobErode.odb,Step-1,Increment      1: Step Time =,    10.00,"TUBE-1",          6599,   5.87785E-03,   8.09017E-03,      500.E-03,NA,NA,"",  10.00000E-03,   867.362E-21,      500.E-03,            0.,            0.
C:/ALETube/PressureUpdate/LargeStep/DeformErode/JobErode.odb,Step-1,Increment      1: Step Time =,    10.00,"TUBE-1",          6763,   5.87785E-03,   8.09017E-03,   512.500E-03,NA,NA,"",  10.00000E-03,   867.362E-21,   512.500E-03,            0.,            0.
C:/ALETube/PressureUpdate/LargeStep/DeformErode/JobErode.odb,Step-1,Increment      1: Step Time =,    10.00,"TUBE-1",          6729,   7.07107E-03,   7.07107E-03,   512.500E-03,NA,NA,"",  10.00000E-03,            0.,   512.500E-03,            0.,            0.
C:/ALETube/PressureUpdate/LargeStep/DeformErode/JobErode.odb,Step-1,Increment      1: Step Time =,    10.00,"TUBE-1",          6927,   5.87785E-03,   8.09017E-03,   525.000E-03,NA,NA,"",  10.00000E-03,   867.362E-21,   525.000E-03,            0.,            0.
C:/ALETube/PressureUpdate/LargeStep/DeformErode/JobErode.odb,Step-1,Increment      1: Step Time =,    10.00,"TUBE-1",          6893,   7.07107E-03,   7.07107E-03,   525.000E-03,NA,NA,"",  10.00000E-03,            0.,   525.000E-03,            0.,            0.
C:/ALETube/PressureUpdate/LargeStep/DeformErode/JobErode.odb,Step-1,Increment      1: Step Time =,    10.00,"TUBE-1",          7091,   5.87785E-03,   8.09017E-03,   537.500E-03,NA,NA,"",  10.00000E-03,   867.362E-21,   537.500E-03,            0.,            0.
C:/ALETube/PressureUpdate/LargeStep/DeformErode/JobErode.odb,Step-1,Increment      1: Step Time =,    10.00,"TUBE-1",          7057,   7.07107E-03,   7.07107E-03,   537.500E-03,NA,NA,"",  10.00000E-03,            0.,   537.500E-03,            0.,            0.
C:/ALETube/PressureUpdate/LargeStep/DeformErode/JobErode.odb,Step-1,Increment      1: Step Time =,    10.00,"TUBE-1",          7255,   5.87785E-03,   8.09017E-03,   550.000E-03,NA,NA,"",  10.00000E-03,   867.362E-21,   550.000E-03,            0.,            0.
C:/ALETube/PressureUpdate/LargeStep/DeformErode/JobErode.odb,Step-1,Increment      1: Step Time =,    10.00,"TUBE-1",          7221,   7.07107E-03,   7.07107E-03,   550.000E-03,NA,NA,"",  10.00000E-03,            0.,   550.000E-03,            0.,            0.
C:/ALETube/PressureUpdate/LargeStep/DeformErode/JobErode.odb,Step-1,Increment      1: Step Time =,    10.00,"TUBE-1",          7385,   7.07107E-03,   7.07107E-03,     562.5E-03,NA,NA,"",  10.00000E-03,            0.,     562.5E-03,            0.,            0.
C:/ALETube/PressureUpdate/LargeStep/DeformErode/JobErode.odb,Step-1,Increment      1: Step Time =,    10.00,"TUBE-1",          7419,   5.87785E-03,   8.09017E-03,     562.5E-03,NA,NA,"",  10.00000E-03,   867.362E-21,     562.5E-03,            0.,            0.
C:/ALETube/PressureUpdate/LargeStep/DeformErode/JobErode.odb,Step-1,Increment      1: Step Time =,    10.00,"TUBE-1",          7583,   5.87785E-03,   8.09017E-03,   575.000E-03,NA,NA,"",  10.00000E-03,   867.362E-21,   575.000E-03,            0.,            0.
C:/ALETube/PressureUpdate/LargeStep/DeformErode/JobErode.odb,Step-1,Increment      1: Step Time =,    10.00,"TUBE-1",          7549,   7.07107E-03,   7.07107E-03,   575.000E-03,NA,NA,"",  10.00000E-03,            0.,   575.000E-03,            0.,            0.
C:/ALETube/PressureUpdate/LargeStep/DeformErode/JobErode.odb,Step-1,Increment      1: Step Time =,    10.00,"TUBE-1",          7747,   5.87785E-03,   8.09017E-03,   587.500E-03,NA,NA,"",  10.00000E-03,   867.362E-21,   587.500E-03,            0.,            0.
C:/ALETube/PressureUpdate/LargeStep/DeformErode/JobErode.odb,Step-1,Increment      1: Step Time =,    10.00,"TUBE-1",          7713,   7.07107E-03,   7.07107E-03,   587.500E-03,NA,NA,"",  10.00000E-03,            0.,   587.500E-03,            0.,            0.
C:/ALETube/PressureUpdate/LargeStep/DeformErode/JobErode.odb,Step-1,Increment      1: Step Time =,    10.00,"TUBE-1",          7911,   5.87785E-03,   8.09017E-03,   600.000E-03,NA,NA,"",  10.00000E-03,   867.362E-21,   600.000E-03,            0.,            0.
C:/ALETube/PressureUpdate/LargeStep/DeformErode/JobErode.odb,Step-1,Increment      1: Step Time =,    10.00,"TUBE-1",          7877,   7.07107E-03,   7.07107E-03,   600.000E-03,NA,NA,"",  10.00000E-03,            0.,   600.000E-03,            0.,            0.
C:/ALETube/PressureUpdate/LargeStep/DeformErode/JobErode.odb,Step-1,Increment      1: Step Time =,    10.00,"TUBE-1",          8075,   5.87785E-03,   8.09017E-03,   612.500E-03,NA,NA,"",  10.00000E-03,   867.362E-21,   612.500E-03,            0.,            0.
C:/ALETube/PressureUpdate/LargeStep/DeformErode/JobErode.odb,Step-1,Increment      1: Step Time =,    10.00,"TUBE-1",          8041,   7.07107E-03,   7.07107E-03,   612.500E-03,NA,NA,"",  10.00000E-03,            0.,   612.500E-03,            0.,            0.
C:/ALETube/PressureUpdate/LargeStep/DeformErode/JobErode.odb,Step-1,Increment      1: Step Time =,    10.00,"TUBE-1",          8205,   7.07107E-03,   7.07107E-03,      625.E-03,NA,NA,"",  10.00000E-03,            0.,      625.E-03,            0.,            0.
C:/ALETube/PressureUpdate/LargeStep/DeformErode/JobErode.odb,Step-1,Increment      1: Step Time =,    10.00,"TUBE-1",          8239,   5.87785E-03,   8.09017E-03,      625.E-03,NA,NA,"",  10.00000E-03,   867.362E-21,      625.E-03,            0.,            0.
C:/ALETube/PressureUpdate/LargeStep/DeformErode/JobErode.odb,Step-1,Increment      1: Step Time =,    10.00,"TUBE-1",          8403,   5.87785E-03,   8.09017E-03,   637.500E-03,NA,NA,"",  10.00000E-03,   867.362E-21,   637.500E-03,            0.,            0.
C:/ALETube/PressureUpdate/LargeStep/DeformErode/JobErode.odb,Step-1,Increment      1: Step Time =,    10.00,"TUBE-1",          8369,   7.07107E-03,   7.07107E-03,   637.500E-03,NA,NA,"",  10.00000E-03,            0.,   637.500E-03,            0.,            0.
C:/ALETube/PressureUpdate/LargeStep/DeformErode/JobErode.odb,Step-1,Increment      1: Step Time =,    10.00,"TUBE-1",          8567,   5.87785E-03,   8.09017E-03,   650.000E-03,NA,NA,"",  10.00000E-03,   867.362E-21,   650.000E-03,            0.,            0.
C:/ALETube/PressureUpdate/LargeStep/DeformErode/JobErode.odb,Step-1,Increment      1: Step Time =,    10.00,"TUBE-1",          8533,   7.07107E-03,   7.07107E-03,   650.000E-03,NA,NA,"",  10.00000E-03,            0.,   650.000E-03,            0.,            0.
C:/ALETube/PressureUpdate/LargeStep/DeformErode/JobErode.odb,Step-1,Increment      1: Step Time =,    10.00,"TUBE-1",          8731,   5.87785E-03,   8.09017E-03,   662.500E-03,NA,NA,"",  10.00000E-03,   867.362E-21,   662.500E-03,            0.,            0.
C:/ALETube/PressureUpdate/LargeStep/DeformErode/JobErode.odb,Step-1,Increment      1: Step Time =,    10.00,"TUBE-1",          8697,   7.07107E-03,   7.07107E-03,   662.500E-03,NA,NA,"",  10.00000E-03,            0.,   662.500E-03,            0.,            0.
C:/ALETube/PressureUpdate/LargeStep/DeformErode/JobErode.odb,Step-1,Increment      1: Step Time =,    10.00,"TUBE-1",          8895,   5.87785E-03,   8.09017E-03,   675.000E-03,NA,NA,"",  10.00000E-03,   867.362E-21,   675.000E-03,            0.,            0.
C:/ALETube/PressureUpdate/LargeStep/DeformErode/JobErode.odb,Step-1,Increment      1: Step Time =,    10.00,"TUBE-1",          8861,   7.07107E-03,   7.07107E-03,   675.000E-03,NA,NA,"",  10.00000E-03,            0.,   675.000E-03,            0.,            0.
C:/ALETube/PressureUpdate/LargeStep/DeformErode/JobErode.odb,Step-1,Increment      1: Step Time =,    10.00,"TUBE-1",          9025,   7.07107E-03,   7.07107E-03,     687.5E-03,NA,NA,"",  10.00000E-03,            0.,     687.5E-03,            0.,            0.
C:/ALETube/PressureUpdate/LargeStep/DeformErode/JobErode.odb,Step-1,Increment      1: Step Time =,    10.00,"TUBE-1",          9059,   5.87785E-03,   8.09017E-03,     687.5E-03,NA,NA,"",  10.00000E-03,   867.362E-21,     687.5E-03,            0.,            0.
C:/ALETube/PressureUpdate/LargeStep/DeformErode/JobErode.odb,Step-1,Increment      1: Step Time =,    10.00,"TUBE-1",          9223,   5.87785E-03,   8.09017E-03,   700.000E-03,NA,NA,"",  10.00000E-03,   867.362E-21,   700.000E-03,            0.,            0.
C:/ALETube/PressureUpdate/LargeStep/DeformErode/JobErode.odb,Step-1,Increment      1: Step Time =,    10.00,"TUBE-1",          9189,   7.07107E-03,   7.07107E-03,   700.000E-03,NA,NA,"",  10.00000E-03,            0.,   700.000E-03,            0.,            0.
C:/ALETube/PressureUpdate/LargeStep/DeformErode/JobErode.odb,Step-1,Increment      1: Step Time =,    10.00,"TUBE-1",          9387,   5.87785E-03,   8.09017E-03,   712.500E-03,NA,NA,"",  10.00000E-03,   867.362E-21,   712.500E-03,            0.,            0.
C:/ALETube/PressureUpdate/LargeStep/DeformErode/JobErode.odb,Step-1,Increment      1: Step Time =,    10.00,"TUBE-1",          9353,   7.07107E-03,   7.07107E-03,   712.500E-03,NA,NA,"",  10.00000E-03,            0.,   712.500E-03,            0.,            0.
C:/ALETube/PressureUpdate/LargeStep/DeformErode/JobErode.odb,Step-1,Increment      1: Step Time =,    10.00,"TUBE-1",          9551,   5.87785E-03,   8.09017E-03,   725.000E-03,NA,NA,"",  10.00000E-03,   867.362E-21,   725.000E-03,            0.,            0.
C:/ALETube/PressureUpdate/LargeStep/DeformErode/JobErode.odb,Step-1,Increment      1: Step Time =,    10.00,"TUBE-1",          9517,   7.07107E-03,   7.07107E-03,   725.000E-03,NA,NA,"",  10.00000E-03,            0.,   725.000E-03,            0.,            0.
C:/ALETube/PressureUpdate/LargeStep/DeformErode/JobErode.odb,Step-1,Increment      1: Step Time =,    10.00,"TUBE-1",          9715,   5.87785E-03,   8.09017E-03,   737.500E-03,NA,NA,"",  10.00000E-03,   867.362E-21,   737.500E-03,            0.,            0.
C:/ALETube/PressureUpdate/LargeStep/DeformErode/JobErode.odb,Step-1,Increment      1: Step Time =,    10.00,"TUBE-1",          9681,   7.07107E-03,   7.07107E-03,   737.500E-03,NA,NA,"",  10.00000E-03,            0.,   737.500E-03,            0.,            0.
C:/ALETube/PressureUpdate/LargeStep/DeformErode/JobErode.odb,Step-1,Increment      1: Step Time =,    10.00,"TUBE-1",          9845,   7.07107E-03,   7.07107E-03,      750.E-03,NA,NA,"",  10.00000E-03,            0.,      750.E-03,            0.,            0.
C:/ALETube/PressureUpdate/LargeStep/DeformErode/JobErode.odb,Step-1,Increment      1: Step Time =,    10.00,"TUBE-1",          9879,   5.87785E-03,   8.09017E-03,      750.E-03,NA,NA,"",  10.00000E-03,   867.362E-21,      750.E-03,            0.,            0.
C:/ALETube/PressureUpdate/LargeStep/DeformErode/JobErode.odb,Step-1,Increment      1: Step Time =,    10.00,"TUBE-1",         10043,   5.87785E-03,   8.09017E-03,   762.500E-03,NA,NA,"",  10.00000E-03,   867.362E-21,   762.500E-03,            0.,            0.
C:/ALETube/PressureUpdate/LargeStep/DeformErode/JobErode.odb,Step-1,Increment      1: Step Time =,    10.00,"TUBE-1",         10009,   7.07107E-03,   7.07107E-03,   762.500E-03,NA,NA,"",  10.00000E-03,            0.,   762.500E-03,            0.,            0.
C:/ALETube/PressureUpdate/LargeStep/DeformErode/JobErode.odb,Step-1,Increment      1: Step Time =,    10.00,"TUBE-1",         10207,   5.87785E-03,   8.09017E-03,   775.000E-03,NA,NA,"",  10.00000E-03,   867.362E-21,   775.000E-03,            0.,            0.
C:/ALETube/PressureUpdate/LargeStep/DeformErode/JobErode.odb,Step-1,Increment      1: Step Time =,    10.00,"TUBE-1",         10173,   7.07107E-03,   7.07107E-03,   775.000E-03,NA,NA,"",  10.00000E-03,            0.,   775.000E-03,            0.,            0.
C:/ALETube/PressureUpdate/LargeStep/DeformErode/JobErode.odb,Step-1,Increment      1: Step Time =,    10.00,"TUBE-1",         10371,   5.87785E-03,   8.09017E-03,   787.500E-03,NA,NA,"",  10.00000E-03,   867.362E-21,   787.500E-03,            0.,            0.
C:/ALETube/PressureUpdate/LargeStep/DeformErode/JobErode.odb,Step-1,Increment      1: Step Time =,    10.00,"TUBE-1",         10337,   7.07107E-03,   7.07107E-03,   787.500E-03,NA,NA,"",  10.00000E-03,            0.,   787.500E-03,            0.,            0.
C:/ALETube/PressureUpdate/LargeStep/DeformErode/JobErode.odb,Step-1,Increment      1: Step Time =,    10.00,"TUBE-1",         10535,   5.87785E-03,   8.09017E-03,   800.000E-03,NA,NA,"",  10.00000E-03,   867.362E-21,   800.000E-03,            0.,            0.
C:/ALETube/PressureUpdate/LargeStep/DeformErode/JobErode.odb,Step-1,Increment      1: Step Time =,    10.00,"TUBE-1",         10501,   7.07107E-03,   7.07107E-03,   800.000E-03,NA,NA,"",  10.00000E-03,            0.,   800.000E-03,            0.,            0.
C:/ALETube/PressureUpdate/LargeStep/DeformErode/JobErode.odb,Step-1,Increment      1: Step Time =,    10.00,"TUBE-1",         10665,   7.07107E-03,   7.07107E-03,     812.5E-03,NA,NA,"",  10.00000E-03,            0.,     812.5E-03,            0.,            0.
C:/ALETube/PressureUpdate/LargeStep/DeformErode/JobErode.odb,Step-1,Increment      1: Step Time =,    10.00,"TUBE-1",         10699,   5.87785E-03,   8.09017E-03,     812.5E-03,NA,NA,"",  10.00000E-03,   867.362E-21,     812.5E-03,            0.,            0.
C:/ALETube/PressureUpdate/LargeStep/DeformErode/JobErode.odb,Step-1,Increment      1: Step Time =,    10.00,"TUBE-1",         10863,   5.87785E-03,   8.09017E-03,   825.000E-03,NA,NA,"",  10.00000E-03,   867.362E-21,   825.000E-03,            0.,            0.
C:/ALETube/PressureUpdate/LargeStep/DeformErode/JobErode.odb,Step-1,Increment      1: Step Time =,    10.00,"TUBE-1",         10829,   7.07107E-03,   7.07107E-03,   825.000E-03,NA,NA,"",  10.00000E-03,            0.,   825.000E-03,            0.,            0.
C:/ALETube/PressureUpdate/LargeStep/DeformErode/JobErode.odb,Step-1,Increment      1: Step Time =,    10.00,"TUBE-1",         11027,   5.87785E-03,   8.09017E-03,   837.500E-03,NA,NA,"",  10.00000E-03,   867.362E-21,   837.500E-03,            0.,            0.
C:/ALETube/PressureUpdate/LargeStep/DeformErode/JobErode.odb,Step-1,Increment      1: Step Time =,    10.00,"TUBE-1",         10993,   7.07107E-03,   7.07107E-03,   837.500E-03,NA,NA,"",  10.00000E-03,            0.,   837.500E-03,            0.,            0.
C:/ALETube/PressureUpdate/LargeStep/DeformErode/JobErode.odb,Step-1,Increment      1: Step Time =,    10.00,"TUBE-1",         11191,   5.87785E-03,   8.09017E-03,   850.000E-03,NA,NA,"",  10.00000E-03,   867.362E-21,   850.000E-03,            0.,            0.
C:/ALETube/PressureUpdate/LargeStep/DeformErode/JobErode.odb,Step-1,Increment      1: Step Time =,    10.00,"TUBE-1",         11157,   7.07107E-03,   7.07107E-03,   850.000E-03,NA,NA,"",  10.00000E-03,            0.,   850.000E-03,            0.,            0.
C:/ALETube/PressureUpdate/LargeStep/DeformErode/JobErode.odb,Step-1,Increment      1: Step Time =,    10.00,"TUBE-1",         11355,   5.87785E-03,   8.09017E-03,   862.500E-03,NA,NA,"",  10.00000E-03,   867.362E-21,   862.500E-03,            0.,            0.
C:/ALETube/PressureUpdate/LargeStep/DeformErode/JobErode.odb,Step-1,Increment      1: Step Time =,    10.00,"TUBE-1",         11321,   7.07107E-03,   7.07107E-03,   862.500E-03,NA,NA,"",  10.00000E-03,            0.,   862.500E-03,            0.,            0.
C:/ALETube/PressureUpdate/LargeStep/DeformErode/JobErode.odb,Step-1,Increment      1: Step Time =,    10.00,"TUBE-1",         11485,   7.07107E-03,   7.07107E-03,      875.E-03,NA,NA,"",  10.00000E-03,            0.,      875.E-03,            0.,            0.
C:/ALETube/PressureUpdate/LargeStep/DeformErode/JobErode.odb,Step-1,Increment      1: Step Time =,    10.00,"TUBE-1",         11519,   5.87785E-03,   8.09017E-03,      875.E-03,NA,NA,"",  10.00000E-03,   867.362E-21,      875.E-03,            0.,            0.
C:/ALETube/PressureUpdate/LargeStep/DeformErode/JobErode.odb,Step-1,Increment      1: Step Time =,    10.00,"TUBE-1",         11683,   5.87785E-03,   8.09017E-03,   887.500E-03,NA,NA,"",  10.00000E-03,   867.362E-21,   887.500E-03,            0.,            0.
C:/ALETube/PressureUpdate/LargeStep/DeformErode/JobErode.odb,Step-1,Increment      1: Step Time =,    10.00,"TUBE-1",         11649,   7.07107E-03,   7.07107E-03,   887.500E-03,NA,NA,"",  10.00000E-03,            0.,   887.500E-03,            0.,            0.
C:/ALETube/PressureUpdate/LargeStep/DeformErode/JobErode.odb,Step-1,Increment      1: Step Time =,    10.00,"TUBE-1",         11847,   5.87785E-03,   8.09017E-03,   900.000E-03,NA,NA,"",  10.00000E-03,   867.362E-21,   900.000E-03,            0.,            0.
C:/ALETube/PressureUpdate/LargeStep/DeformErode/JobErode.odb,Step-1,Increment      1: Step Time =,    10.00,"TUBE-1",         11813,   7.07107E-03,   7.07107E-03,   900.000E-03,NA,NA,"",  10.00000E-03,            0.,   900.000E-03,            0.,            0.
C:/ALETube/PressureUpdate/LargeStep/DeformErode/JobErode.odb,Step-1,Increment      1: Step Time =,    10.00,"TUBE-1",         12011,   5.87785E-03,   8.09017E-03,   912.500E-03,NA,NA,"",  10.00000E-03,   867.362E-21,   912.500E-03,            0.,            0.
C:/ALETube/PressureUpdate/LargeStep/DeformErode/JobErode.odb,Step-1,Increment      1: Step Time =,    10.00,"TUBE-1",         11977,   7.07107E-03,   7.07107E-03,   912.500E-03,NA,NA,"",  10.00000E-03,            0.,   912.500E-03,            0.,            0.
C:/ALETube/PressureUpdate/LargeStep/DeformErode/JobErode.odb,Step-1,Increment      1: Step Time =,    10.00,"TUBE-1",         12175,   5.87785E-03,   8.09017E-03,   925.000E-03,NA,NA,"",  10.00000E-03,   867.362E-21,   925.000E-03,            0.,            0.
C:/ALETube/PressureUpdate/LargeStep/DeformErode/JobErode.odb,Step-1,Increment      1: Step Time =,    10.00,"TUBE-1",         12141,   7.07107E-03,   7.07107E-03,   925.000E-03,NA,NA,"",  10.00000E-03,            0.,   925.000E-03,            0.,            0.
C:/ALETube/PressureUpdate/LargeStep/DeformErode/JobErode.odb,Step-1,Increment      1: Step Time =,    10.00,"TUBE-1",         12305,   7.07107E-03,   7.07107E-03,     937.5E-03,NA,NA,"",  10.00000E-03,            0.,     937.5E-03,            0.,            0.
C:/ALETube/PressureUpdate/LargeStep/DeformErode/JobErode.odb,Step-1,Increment      1: Step Time =,    10.00,"TUBE-1",         12339,   5.87785E-03,   8.09017E-03,     937.5E-03,NA,NA,"",  10.00000E-03,   867.362E-21,     937.5E-03,            0.,            0.
C:/ALETube/PressureUpdate/LargeStep/DeformErode/JobErode.odb,Step-1,Increment      1: Step Time =,    10.00,"TUBE-1",         12503,   5.87785E-03,   8.09017E-03,   950.000E-03,NA,NA,"",  10.00000E-03,   867.362E-21,   950.000E-03,            0.,            0.
C:/ALETube/PressureUpdate/LargeStep/DeformErode/JobErode.odb,Step-1,Increment      1: Step Time =,    10.00,"TUBE-1",         12469,   7.07107E-03,   7.07107E-03,   950.000E-03,NA,NA,"",  10.00000E-03,            0.,   950.000E-03,            0.,            0.
C:/ALETube/PressureUpdate/LargeStep/DeformErode/JobErode.odb,Step-1,Increment      1: Step Time =,    10.00,"TUBE-1",         12667,   5.87785E-03,   8.09017E-03,   962.500E-03,NA,NA,"",  10.00000E-03,   867.362E-21,   962.500E-03,            0.,            0.
C:/ALETube/PressureUpdate/LargeStep/DeformErode/JobErode.odb,Step-1,Increment      1: Step Time =,    10.00,"TUBE-1",         12633,   7.07107E-03,   7.07107E-03,   962.500E-03,NA,NA,"",  10.00000E-03,            0.,   962.500E-03,            0.,            0.
C:/ALETube/PressureUpdate/LargeStep/DeformErode/JobErode.odb,Step-1,Increment      1: Step Time =,    10.00,"TUBE-1",         12831,   5.87785E-03,   8.09017E-03,   975.000E-03,NA,NA,"",  10.00000E-03,   867.362E-21,   975.000E-03,            0.,            0.
C:/ALETube/PressureUpdate/LargeStep/DeformErode/JobErode.odb,Step-1,Increment      1: Step Time =,    10.00,"TUBE-1",         12797,   7.07107E-03,   7.07107E-03,   975.000E-03,NA,NA,"",  10.00000E-03,            0.,   975.000E-03,            0.,            0.
C:/ALETube/PressureUpdate/LargeStep/DeformErode/JobErode.odb,Step-1,Increment      1: Step Time =,    10.00,"TUBE-1",         12995,   5.87785E-03,   8.09017E-03,   987.500E-03,NA,NA,"",  10.00000E-03,   867.362E-21,   987.500E-03,            0.,            0.
C:/ALETube/PressureUpdate/LargeStep/DeformErode/JobErode.odb,Step-1,Increment      1: Step Time =,    10.00,"TUBE-1",         12961,   7.07107E-03,   7.07107E-03,   987.500E-03,NA,NA,"",  10.00000E-03,            0.,   987.500E-03,            0.,            0.
C:/ALETube/PressureUpdate/LargeStep/DeformErode/JobErode.odb,Step-1,Increment      1: Step Time =,    10.00,"TUBE-1",         13125,   7.07107E-03,   7.07107E-03,            1.,NA,NA,"",  10.00000E-03,            0.,            1.,            0.,            0.
C:/ALETube/PressureUpdate/LargeStep/DeformErode/JobErode.odb,Step-1,Increment      1: Step Time =,    10.00,"TUBE-1",         13159,   5.87785E-03,   8.09017E-03,            1.,NA,NA,"",  10.00000E-03,   867.362E-21,            1.,            0.,            0.
C:/ALETube/PressureUpdate/LargeStep/DeformErode/JobErode.odb,Step-1,Increment      1: Step Time =,    10.00,"TUBE-1",         13323,   5.87785E-03,   8.09017E-03,       1.01250,NA,NA,"",  10.00000E-03,   867.362E-21,       1.01250,            0.,            0.
C:/ALETube/PressureUpdate/LargeStep/DeformErode/JobErode.odb,Step-1,Increment      1: Step Time =,    10.00,"TUBE-1",         13289,   7.07107E-03,   7.07107E-03,       1.01250,NA,NA,"",  10.00000E-03,            0.,       1.01250,            0.,            0.
C:/ALETube/PressureUpdate/LargeStep/DeformErode/JobErode.odb,Step-1,Increment      1: Step Time =,    10.00,"TUBE-1",         13487,   5.87785E-03,   8.09017E-03,       1.02500,NA,NA,"",  10.00000E-03,   867.362E-21,       1.02500,            0.,            0.
C:/ALETube/PressureUpdate/LargeStep/DeformErode/JobErode.odb,Step-1,Increment      1: Step Time =,    10.00,"TUBE-1",         13453,   7.07107E-03,   7.07107E-03,       1.02500,NA,NA,"",  10.00000E-03,            0.,       1.02500,            0.,            0.
C:/ALETube/PressureUpdate/LargeStep/DeformErode/JobErode.odb,Step-1,Increment      1: Step Time =,    10.00,"TUBE-1",         13617,   7.07107E-03,   7.07107E-03,       1.03750,NA,NA,"",  10.00000E-03,            0.,       1.03750,            0.,            0.
C:/ALETube/PressureUpdate/LargeStep/DeformErode/JobErode.odb,Step-1,Increment      1: Step Time =,    10.00,"TUBE-1",         13651,   5.87785E-03,   8.09017E-03,       1.03750,NA,NA,"",  10.00000E-03,   867.362E-21,       1.03750,            0.,            0.
C:/ALETube/PressureUpdate/LargeStep/DeformErode/JobErode.odb,Step-1,Increment      1: Step Time =,    10.00,"TUBE-1",         13815,   5.87785E-03,   8.09017E-03,       1.05000,NA,NA,"",  10.00000E-03,   867.362E-21,       1.05000,            0.,            0.
C:/ALETube/PressureUpdate/LargeStep/DeformErode/JobErode.odb,Step-1,Increment      1: Step Time =,    10.00,"TUBE-1",         13781,   7.07107E-03,   7.07107E-03,       1.05000,NA,NA,"",  10.00000E-03,            0.,       1.05000,            0.,            0.
C:/ALETube/PressureUpdate/LargeStep/DeformErode/JobErode.odb,Step-1,Increment      1: Step Time =,    10.00,"TUBE-1",         13979,   5.87785E-03,   8.09017E-03,        1.0625,NA,NA,"",  10.00000E-03,   867.362E-21,        1.0625,            0.,            0.
C:/ALETube/PressureUpdate/LargeStep/DeformErode/JobErode.odb,Step-1,Increment      1: Step Time =,    10.00,"TUBE-1",         13945,   7.07107E-03,   7.07107E-03,        1.0625,NA,NA,"",  10.00000E-03,            0.,        1.0625,            0.,            0.
C:/ALETube/PressureUpdate/LargeStep/DeformErode/JobErode.odb,Step-1,Increment      1: Step Time =,    10.00,"TUBE-1",         14109,   7.07107E-03,   7.07107E-03,       1.07500,NA,NA,"",  10.00000E-03,            0.,       1.07500,            0.,            0.
C:/ALETube/PressureUpdate/LargeStep/DeformErode/JobErode.odb,Step-1,Increment      1: Step Time =,    10.00,"TUBE-1",         14143,   5.87785E-03,   8.09017E-03,       1.07500,NA,NA,"",  10.00000E-03,   867.362E-21,       1.07500,            0.,            0.
C:/ALETube/PressureUpdate/LargeStep/DeformErode/JobErode.odb,Step-1,Increment      1: Step Time =,    10.00,"TUBE-1",         14307,   5.87785E-03,   8.09017E-03,       1.08750,NA,NA,"",  10.00000E-03,   867.362E-21,       1.08750,            0.,            0.
C:/ALETube/PressureUpdate/LargeStep/DeformErode/JobErode.odb,Step-1,Increment      1: Step Time =,    10.00,"TUBE-1",         14273,   7.07107E-03,   7.07107E-03,       1.08750,NA,NA,"",  10.00000E-03,            0.,       1.08750,            0.,            0.
C:/ALETube/PressureUpdate/LargeStep/DeformErode/JobErode.odb,Step-1,Increment      1: Step Time =,    10.00,"TUBE-1",         14471,   5.87785E-03,   8.09017E-03,       1.10000,NA,NA,"",  10.00000E-03,   867.362E-21,       1.10000,            0.,            0.
C:/ALETube/PressureUpdate/LargeStep/DeformErode/JobErode.odb,Step-1,Increment      1: Step Time =,    10.00,"TUBE-1",         14437,   7.07107E-03,   7.07107E-03,       1.10000,NA,NA,"",  10.00000E-03,            0.,       1.10000,            0.,            0.
C:/ALETube/PressureUpdate/LargeStep/DeformErode/JobErode.odb,Step-1,Increment      1: Step Time =,    10.00,"TUBE-1",         14635,   5.87785E-03,   8.09017E-03,       1.11250,NA,NA,"",  10.00000E-03,   867.362E-21,       1.11250,            0.,            0.
C:/ALETube/PressureUpdate/LargeStep/DeformErode/JobErode.odb,Step-1,Increment      1: Step Time =,    10.00,"TUBE-1",         14601,   7.07107E-03,   7.07107E-03,       1.11250,NA,NA,"",  10.00000E-03,            0.,       1.11250,            0.,            0.
C:/ALETube/PressureUpdate/LargeStep/DeformErode/JobErode.odb,Step-1,Increment      1: Step Time =,    10.00,"TUBE-1",         14799,   5.87785E-03,   8.09017E-03,         1.125,NA,NA,"",  10.00000E-03,   867.362E-21,         1.125,            0.,            0.
C:/ALETube/PressureUpdate/LargeStep/DeformErode/JobErode.odb,Step-1,Increment      1: Step Time =,    10.00,"TUBE-1",         14765,   7.07107E-03,   7.07107E-03,         1.125,NA,NA,"",  10.00000E-03,            0.,         1.125,            0.,            0.
C:/ALETube/PressureUpdate/LargeStep/DeformErode/JobErode.odb,Step-1,Increment      1: Step Time =,    10.00,"TUBE-1",         14929,   7.07107E-03,   7.07107E-03,       1.13750,NA,NA,"",  10.00000E-03,            0.,       1.13750,            0.,            0.
C:/ALETube/PressureUpdate/LargeStep/DeformErode/JobErode.odb,Step-1,Increment      1: Step Time =,    10.00,"TUBE-1",         14963,   5.87785E-03,   8.09017E-03,       1.13750,NA,NA,"",  10.00000E-03,   867.362E-21,       1.13750,            0.,            0.
C:/ALETube/PressureUpdate/LargeStep/DeformErode/JobErode.odb,Step-1,Increment      1: Step Time =,    10.00,"TUBE-1",         15127,   5.87785E-03,   8.09017E-03,       1.15000,NA,NA,"",  10.00000E-03,   867.362E-21,       1.15000,            0.,            0.
C:/ALETube/PressureUpdate/LargeStep/DeformErode/JobErode.odb,Step-1,Increment      1: Step Time =,    10.00,"TUBE-1",         15093,   7.07107E-03,   7.07107E-03,       1.15000,NA,NA,"",  10.00000E-03,            0.,       1.15000,            0.,            0.
C:/ALETube/PressureUpdate/LargeStep/DeformErode/JobErode.odb,Step-1,Increment      1: Step Time =,    10.00,"TUBE-1",         15291,   5.87785E-03,   8.09017E-03,       1.16250,NA,NA,"",  10.00000E-03,   867.362E-21,       1.16250,            0.,            0.
C:/ALETube/PressureUpdate/LargeStep/DeformErode/JobErode.odb,Step-1,Increment      1: Step Time =,    10.00,"TUBE-1",         15257,   7.07107E-03,   7.07107E-03,       1.16250,NA,NA,"",  10.00000E-03,            0.,       1.16250,            0.,            0.
C:/ALETube/PressureUpdate/LargeStep/DeformErode/JobErode.odb,Step-1,Increment      1: Step Time =,    10.00,"TUBE-1",         15455,   5.87785E-03,   8.09017E-03,       1.17500,NA,NA,"",  10.00000E-03,   867.362E-21,       1.17500,            0.,            0.
C:/ALETube/PressureUpdate/LargeStep/DeformErode/JobErode.odb,Step-1,Increment      1: Step Time =,    10.00,"TUBE-1",         15421,   7.07107E-03,   7.07107E-03,       1.17500,NA,NA,"",  10.00000E-03,            0.,       1.17500,            0.,            0.
C:/ALETube/PressureUpdate/LargeStep/DeformErode/JobErode.odb,Step-1,Increment      1: Step Time =,    10.00,"TUBE-1",         15619,   5.87785E-03,   8.09017E-03,        1.1875,NA,NA,"",  10.00000E-03,   867.362E-21,        1.1875,            0.,            0.
C:/ALETube/PressureUpdate/LargeStep/DeformErode/JobErode.odb,Step-1,Increment      1: Step Time =,    10.00,"TUBE-1",         15585,   7.07107E-03,   7.07107E-03,        1.1875,NA,NA,"",  10.00000E-03,            0.,        1.1875,            0.,            0.
C:/ALETube/PressureUpdate/LargeStep/DeformErode/JobErode.odb,Step-1,Increment      1: Step Time =,    10.00,"TUBE-1",         15749,   7.07107E-03,   7.07107E-03,       1.20000,NA,NA,"",  10.00000E-03,            0.,       1.20000,            0.,            0.
C:/ALETube/PressureUpdate/LargeStep/DeformErode/JobErode.odb,Step-1,Increment      1: Step Time =,    10.00,"TUBE-1",         15783,   5.87785E-03,   8.09017E-03,       1.20000,NA,NA,"",  10.00000E-03,   867.362E-21,       1.20000,            0.,            0.
C:/ALETube/PressureUpdate/LargeStep/DeformErode/JobErode.odb,Step-1,Increment      1: Step Time =,    10.00,"TUBE-1",         15947,   5.87785E-03,   8.09017E-03,       1.21250,NA,NA,"",  10.00000E-03,   867.362E-21,       1.21250,            0.,            0.
C:/ALETube/PressureUpdate/LargeStep/DeformErode/JobErode.odb,Step-1,Increment      1: Step Time =,    10.00,"TUBE-1",         15913,   7.07107E-03,   7.07107E-03,       1.21250,NA,NA,"",  10.00000E-03,            0.,       1.21250,            0.,            0.
C:/ALETube/PressureUpdate/LargeStep/DeformErode/JobErode.odb,Step-1,Increment      1: Step Time =,    10.00,"TUBE-1",         16111,   5.87785E-03,   8.09017E-03,       1.22500,NA,NA,"",  10.00000E-03,   867.362E-21,       1.22500,            0.,            0.
C:/ALETube/PressureUpdate/LargeStep/DeformErode/JobErode.odb,Step-1,Increment      1: Step Time =,    10.00,"TUBE-1",         16077,   7.07107E-03,   7.07107E-03,       1.22500,NA,NA,"",  10.00000E-03,            0.,       1.22500,            0.,            0.
C:/ALETube/PressureUpdate/LargeStep/DeformErode/JobErode.odb,Step-1,Increment      1: Step Time =,    10.00,"TUBE-1",         16275,   5.87785E-03,   8.09017E-03,       1.23750,NA,NA,"",  10.00000E-03,   867.362E-21,       1.23750,            0.,            0.
C:/ALETube/PressureUpdate/LargeStep/DeformErode/JobErode.odb,Step-1,Increment      1: Step Time =,    10.00,"TUBE-1",         16241,   7.07107E-03,   7.07107E-03,       1.23750,NA,NA,"",  10.00000E-03,            0.,       1.23750,            0.,            0.
C:/ALETube/PressureUpdate/LargeStep/DeformErode/JobErode.odb,Step-1,Increment      1: Step Time =,    10.00,"TUBE-1",         16439,   5.87785E-03,   8.09017E-03,          1.25,NA,NA,"",  10.00000E-03,   867.362E-21,          1.25,            0.,            0.
C:/ALETube/PressureUpdate/LargeStep/DeformErode/JobErode.odb,Step-1,Increment      1: Step Time =,    10.00,"TUBE-1",         16405,   7.07107E-03,   7.07107E-03,          1.25,NA,NA,"",  10.00000E-03,            0.,          1.25,            0.,            0.
C:/ALETube/PressureUpdate/LargeStep/DeformErode/JobErode.odb,Step-1,Increment      1: Step Time =,    10.00,"TUBE-1",         16569,   7.07107E-03,   7.07107E-03,       1.26250,NA,NA,"",  10.00000E-03,            0.,       1.26250,            0.,            0.
C:/ALETube/PressureUpdate/LargeStep/DeformErode/JobErode.odb,Step-1,Increment      1: Step Time =,    10.00,"TUBE-1",         16603,   5.87785E-03,   8.09017E-03,       1.26250,NA,NA,"",  10.00000E-03,   867.362E-21,       1.26250,            0.,            0.
C:/ALETube/PressureUpdate/LargeStep/DeformErode/JobErode.odb,Step-1,Increment      1: Step Time =,    10.00,"TUBE-1",         16767,   5.87785E-03,   8.09017E-03,       1.27500,NA,NA,"",  10.00000E-03,   867.362E-21,       1.27500,            0.,            0.
C:/ALETube/PressureUpdate/LargeStep/DeformErode/JobErode.odb,Step-1,Increment      1: Step Time =,    10.00,"TUBE-1",         16733,   7.07107E-03,   7.07107E-03,       1.27500,NA,NA,"",  10.00000E-03,            0.,       1.27500,            0.,            0.
C:/ALETube/PressureUpdate/LargeStep/DeformErode/JobErode.odb,Step-1,Increment      1: Step Time =,    10.00,"TUBE-1",         16931,   5.87785E-03,   8.09017E-03,       1.28750,NA,NA,"",  10.00000E-03,   867.362E-21,       1.28750,            0.,            0.
C:/ALETube/PressureUpdate/LargeStep/DeformErode/JobErode.odb,Step-1,Increment      1: Step Time =,    10.00,"TUBE-1",         16897,   7.07107E-03,   7.07107E-03,       1.28750,NA,NA,"",  10.00000E-03,            0.,       1.28750,            0.,            0.
C:/ALETube/PressureUpdate/LargeStep/DeformErode/JobErode.odb,Step-1,Increment      1: Step Time =,    10.00,"TUBE-1",         17095,   5.87785E-03,   8.09017E-03,       1.30000,NA,NA,"",  10.00000E-03,   867.362E-21,       1.30000,            0.,            0.
C:/ALETube/PressureUpdate/LargeStep/DeformErode/JobErode.odb,Step-1,Increment      1: Step Time =,    10.00,"TUBE-1",         17061,   7.07107E-03,   7.07107E-03,       1.30000,NA,NA,"",  10.00000E-03,            0.,       1.30000,            0.,            0.
C:/ALETube/PressureUpdate/LargeStep/DeformErode/JobErode.odb,Step-1,Increment      1: Step Time =,    10.00,"TUBE-1",         17259,   5.87785E-03,   8.09017E-03,        1.3125,NA,NA,"",  10.00000E-03,   867.362E-21,        1.3125,            0.,            0.
C:/ALETube/PressureUpdate/LargeStep/DeformErode/JobErode.odb,Step-1,Increment      1: Step Time =,    10.00,"TUBE-1",         17225,   7.07107E-03,   7.07107E-03,        1.3125,NA,NA,"",  10.00000E-03,            0.,        1.3125,            0.,            0.
C:/ALETube/PressureUpdate/LargeStep/DeformErode/JobErode.odb,Step-1,Increment      1: Step Time =,    10.00,"TUBE-1",         17389,   7.07107E-03,   7.07107E-03,       1.32500,NA,NA,"",  10.00000E-03,            0.,       1.32500,            0.,            0.
C:/ALETube/PressureUpdate/LargeStep/DeformErode/JobErode.odb,Step-1,Increment      1: Step Time =,    10.00,"TUBE-1",         17423,   5.87785E-03,   8.09017E-03,       1.32500,NA,NA,"",  10.00000E-03,   867.362E-21,       1.32500,            0.,            0.
C:/ALETube/PressureUpdate/LargeStep/DeformErode/JobErode.odb,Step-1,Increment      1: Step Time =,    10.00,"TUBE-1",         17587,   5.87785E-03,   8.09017E-03,       1.33750,NA,NA,"",  10.00000E-03,   867.362E-21,       1.33750,            0.,            0.
C:/ALETube/PressureUpdate/LargeStep/DeformErode/JobErode.odb,Step-1,Increment      1: Step Time =,    10.00,"TUBE-1",         17553,   7.07107E-03,   7.07107E-03,       1.33750,NA,NA,"",  10.00000E-03,            0.,       1.33750,            0.,            0.
C:/ALETube/PressureUpdate/LargeStep/DeformErode/JobErode.odb,Step-1,Increment      1: Step Time =,    10.00,"TUBE-1",         17751,   5.87785E-03,   8.09017E-03,       1.35000,NA,NA,"",  10.00000E-03,   867.362E-21,       1.35000,            0.,            0.
C:/ALETube/PressureUpdate/LargeStep/DeformErode/JobErode.odb,Step-1,Increment      1: Step Time =,    10.00,"TUBE-1",         17717,   7.07107E-03,   7.07107E-03,       1.35000,NA,NA,"",  10.00000E-03,            0.,       1.35000,            0.,            0.
C:/ALETube/PressureUpdate/LargeStep/DeformErode/JobErode.odb,Step-1,Increment      1: Step Time =,    10.00,"TUBE-1",         17915,   5.87785E-03,   8.09017E-03,       1.36250,NA,NA,"",  10.00000E-03,   867.362E-21,       1.36250,            0.,            0.
C:/ALETube/PressureUpdate/LargeStep/DeformErode/JobErode.odb,Step-1,Increment      1: Step Time =,    10.00,"TUBE-1",         17881,   7.07107E-03,   7.07107E-03,       1.36250,NA,NA,"",  10.00000E-03,            0.,       1.36250,            0.,            0.
C:/ALETube/PressureUpdate/LargeStep/DeformErode/JobErode.odb,Step-1,Increment      1: Step Time =,    10.00,"TUBE-1",         18079,   5.87785E-03,   8.09017E-03,         1.375,NA,NA,"",  10.00000E-03,   867.362E-21,         1.375,            0.,            0.
C:/ALETube/PressureUpdate/LargeStep/DeformErode/JobErode.odb,Step-1,Increment      1: Step Time =,    10.00,"TUBE-1",         18045,   7.07107E-03,   7.07107E-03,         1.375,NA,NA,"",  10.00000E-03,            0.,         1.375,            0.,            0.
C:/ALETube/PressureUpdate/LargeStep/DeformErode/JobErode.odb,Step-1,Increment      1: Step Time =,    10.00,"TUBE-1",         18209,   7.07107E-03,   7.07107E-03,       1.38750,NA,NA,"",  10.00000E-03,            0.,       1.38750,            0.,            0.
C:/ALETube/PressureUpdate/LargeStep/DeformErode/JobErode.odb,Step-1,Increment      1: Step Time =,    10.00,"TUBE-1",         18243,   5.87785E-03,   8.09017E-03,       1.38750,NA,NA,"",  10.00000E-03,   867.362E-21,       1.38750,            0.,            0.
C:/ALETube/PressureUpdate/LargeStep/DeformErode/JobErode.odb,Step-1,Increment      1: Step Time =,    10.00,"TUBE-1",         18407,   5.87785E-03,   8.09017E-03,       1.40000,NA,NA,"",  10.00000E-03,   867.362E-21,       1.40000,            0.,            0.
C:/ALETube/PressureUpdate/LargeStep/DeformErode/JobErode.odb,Step-1,Increment      1: Step Time =,    10.00,"TUBE-1",         18373,   7.07107E-03,   7.07107E-03,       1.40000,NA,NA,"",  10.00000E-03,            0.,       1.40000,            0.,            0.
C:/ALETube/PressureUpdate/LargeStep/DeformErode/JobErode.odb,Step-1,Increment      1: Step Time =,    10.00,"TUBE-1",         18571,   5.87785E-03,   8.09017E-03,       1.41250,NA,NA,"",  10.00000E-03,   867.362E-21,       1.41250,            0.,            0.
C:/ALETube/PressureUpdate/LargeStep/DeformErode/JobErode.odb,Step-1,Increment      1: Step Time =,    10.00,"TUBE-1",         18537,   7.07107E-03,   7.07107E-03,       1.41250,NA,NA,"",  10.00000E-03,            0.,       1.41250,            0.,            0.
C:/ALETube/PressureUpdate/LargeStep/DeformErode/JobErode.odb,Step-1,Increment      1: Step Time =,    10.00,"TUBE-1",         18735,   5.87785E-03,   8.09017E-03,       1.42500,NA,NA,"",  10.00000E-03,   867.362E-21,       1.42500,            0.,            0.
C:/ALETube/PressureUpdate/LargeStep/DeformErode/JobErode.odb,Step-1,Increment      1: Step Time =,    10.00,"TUBE-1",         18701,   7.07107E-03,   7.07107E-03,       1.42500,NA,NA,"",  10.00000E-03,            0.,       1.42500,            0.,            0.
C:/ALETube/PressureUpdate/LargeStep/DeformErode/JobErode.odb,Step-1,Increment      1: Step Time =,    10.00,"TUBE-1",         18899,   5.87785E-03,   8.09017E-03,        1.4375,NA,NA,"",  10.00000E-03,   867.362E-21,        1.4375,            0.,            0.
C:/ALETube/PressureUpdate/LargeStep/DeformErode/JobErode.odb,Step-1,Increment      1: Step Time =,    10.00,"TUBE-1",         18865,   7.07107E-03,   7.07107E-03,        1.4375,NA,NA,"",  10.00000E-03,            0.,        1.4375,            0.,            0.
C:/ALETube/PressureUpdate/LargeStep/DeformErode/JobErode.odb,Step-1,Increment      1: Step Time =,    10.00,"TUBE-1",         19029,   7.07107E-03,   7.07107E-03,       1.45000,NA,NA,"",  10.00000E-03,            0.,       1.45000,            0.,            0.
C:/ALETube/PressureUpdate/LargeStep/DeformErode/JobErode.odb,Step-1,Increment      1: Step Time =,    10.00,"TUBE-1",         19063,   5.87785E-03,   8.09017E-03,       1.45000,NA,NA,"",  10.00000E-03,   867.362E-21,       1.45000,            0.,            0.
C:/ALETube/PressureUpdate/LargeStep/DeformErode/JobErode.odb,Step-1,Increment      1: Step Time =,    10.00,"TUBE-1",         19227,   5.87785E-03,   8.09017E-03,       1.46250,NA,NA,"",  10.00000E-03,   867.362E-21,       1.46250,            0.,            0.
C:/ALETube/PressureUpdate/LargeStep/DeformErode/JobErode.odb,Step-1,Increment      1: Step Time =,    10.00,"TUBE-1",         19193,   7.07107E-03,   7.07107E-03,       1.46250,NA,NA,"",  10.00000E-03,            0.,       1.46250,            0.,            0.
C:/ALETube/PressureUpdate/LargeStep/DeformErode/JobErode.odb,Step-1,Increment      1: Step Time =,    10.00,"TUBE-1",         19391,   5.87785E-03,   8.09017E-03,       1.47500,NA,NA,"",  10.00000E-03,   867.362E-21,       1.47500,            0.,            0.
C:/ALETube/PressureUpdate/LargeStep/DeformErode/JobErode.odb,Step-1,Increment      1: Step Time =,    10.00,"TUBE-1",         19357,   7.07107E-03,   7.07107E-03,       1.47500,NA,NA,"",  10.00000E-03,            0.,       1.47500,            0.,            0.
C:/ALETube/PressureUpdate/LargeStep/DeformErode/JobErode.odb,Step-1,Increment      1: Step Time =,    10.00,"TUBE-1",         19555,   5.87785E-03,   8.09017E-03,       1.48750,NA,NA,"",  10.00000E-03,   867.362E-21,       1.48750,            0.,            0.
C:/ALETube/PressureUpdate/LargeStep/DeformErode/JobErode.odb,Step-1,Increment      1: Step Time =,    10.00,"TUBE-1",         19521,   7.07107E-03,   7.07107E-03,       1.48750,NA,NA,"",  10.00000E-03,            0.,       1.48750,            0.,            0.
C:/ALETube/PressureUpdate/LargeStep/DeformErode/JobErode.odb,Step-1,Increment      1: Step Time =,    10.00,"TUBE-1",         19719,   5.87785E-03,   8.09017E-03,           1.5,NA,NA,"",  10.00000E-03,   867.362E-21,           1.5,            0.,            0.
C:/ALETube/PressureUpdate/LargeStep/DeformErode/JobErode.odb,Step-1,Increment      1: Step Time =,    10.00,"TUBE-1",         19685,   7.07107E-03,   7.07107E-03,           1.5,NA,NA,"",  10.00000E-03,            0.,           1.5,            0.,            0.
C:/ALETube/PressureUpdate/LargeStep/DeformErode/JobErode.odb,Step-1,Increment      1: Step Time =,    10.00,"TUBE-1",         19849,   7.07107E-03,   7.07107E-03,       1.51250,NA,NA,"",  10.00000E-03,            0.,       1.51250,            0.,            0.
C:/ALETube/PressureUpdate/LargeStep/DeformErode/JobErode.odb,Step-1,Increment      1: Step Time =,    10.00,"TUBE-1",         19883,   5.87785E-03,   8.09017E-03,       1.51250,NA,NA,"",  10.00000E-03,   867.362E-21,       1.51250,            0.,            0.
C:/ALETube/PressureUpdate/LargeStep/DeformErode/JobErode.odb,Step-1,Increment      1: Step Time =,    10.00,"TUBE-1",         20047,   5.87785E-03,   8.09017E-03,       1.52500,NA,NA,"",  10.00000E-03,   867.362E-21,       1.52500,            0.,            0.
C:/ALETube/PressureUpdate/LargeStep/DeformErode/JobErode.odb,Step-1,Increment      1: Step Time =,    10.00,"TUBE-1",         20013,   7.07107E-03,   7.07107E-03,       1.52500,NA,NA,"",  10.00000E-03,            0.,       1.52500,            0.,            0.
C:/ALETube/PressureUpdate/LargeStep/DeformErode/JobErode.odb,Step-1,Increment      1: Step Time =,    10.00,"TUBE-1",         20211,   5.87785E-03,   8.09017E-03,       1.53750,NA,NA,"",  10.00000E-03,   867.362E-21,       1.53750,            0.,            0.
C:/ALETube/PressureUpdate/LargeStep/DeformErode/JobErode.odb,Step-1,Increment      1: Step Time =,    10.00,"TUBE-1",         20177,   7.07107E-03,   7.07107E-03,       1.53750,NA,NA,"",  10.00000E-03,            0.,       1.53750,            0.,            0.
C:/ALETube/PressureUpdate/LargeStep/DeformErode/JobErode.odb,Step-1,Increment      1: Step Time =,    10.00,"TUBE-1",         20375,   5.87785E-03,   8.09017E-03,       1.55000,NA,NA,"",  10.00000E-03,   867.362E-21,       1.55000,            0.,            0.
C:/ALETube/PressureUpdate/LargeStep/DeformErode/JobErode.odb,Step-1,Increment      1: Step Time =,    10.00,"TUBE-1",         20341,   7.07107E-03,   7.07107E-03,       1.55000,NA,NA,"",  10.00000E-03,            0.,       1.55000,            0.,            0.
C:/ALETube/PressureUpdate/LargeStep/DeformErode/JobErode.odb,Step-1,Increment      1: Step Time =,    10.00,"TUBE-1",         20539,   5.87785E-03,   8.09017E-03,        1.5625,NA,NA,"",  10.00000E-03,   867.362E-21,        1.5625,            0.,            0.
C:/ALETube/PressureUpdate/LargeStep/DeformErode/JobErode.odb,Step-1,Increment      1: Step Time =,    10.00,"TUBE-1",         20505,   7.07107E-03,   7.07107E-03,        1.5625,NA,NA,"",  10.00000E-03,            0.,        1.5625,            0.,            0.
C:/ALETube/PressureUpdate/LargeStep/DeformErode/JobErode.odb,Step-1,Increment      1: Step Time =,    10.00,"TUBE-1",         20669,   7.07107E-03,   7.07107E-03,       1.57500,NA,NA,"",  10.00000E-03,            0.,       1.57500,            0.,            0.
C:/ALETube/PressureUpdate/LargeStep/DeformErode/JobErode.odb,Step-1,Increment      1: Step Time =,    10.00,"TUBE-1",         20703,   5.87785E-03,   8.09017E-03,       1.57500,NA,NA,"",  10.00000E-03,   867.362E-21,       1.57500,            0.,            0.
C:/ALETube/PressureUpdate/LargeStep/DeformErode/JobErode.odb,Step-1,Increment      1: Step Time =,    10.00,"TUBE-1",         20867,   5.87785E-03,   8.09017E-03,       1.58750,NA,NA,"",  10.00000E-03,   867.362E-21,       1.58750,            0.,            0.
C:/ALETube/PressureUpdate/LargeStep/DeformErode/JobErode.odb,Step-1,Increment      1: Step Time =,    10.00,"TUBE-1",         20833,   7.07107E-03,   7.07107E-03,       1.58750,NA,NA,"",  10.00000E-03,            0.,       1.58750,            0.,            0.
C:/ALETube/PressureUpdate/LargeStep/DeformErode/JobErode.odb,Step-1,Increment      1: Step Time =,    10.00,"TUBE-1",         21031,   5.87785E-03,   8.09017E-03,       1.60000,NA,NA,"",  10.00000E-03,   867.362E-21,       1.60000,            0.,            0.
C:/ALETube/PressureUpdate/LargeStep/DeformErode/JobErode.odb,Step-1,Increment      1: Step Time =,    10.00,"TUBE-1",         20997,   7.07107E-03,   7.07107E-03,       1.60000,NA,NA,"",  10.00000E-03,            0.,       1.60000,            0.,            0.
C:/ALETube/PressureUpdate/LargeStep/DeformErode/JobErode.odb,Step-1,Increment      1: Step Time =,    10.00,"TUBE-1",         21195,   5.87785E-03,   8.09017E-03,       1.61250,NA,NA,"",  10.00000E-03,   867.362E-21,       1.61250,            0.,            0.
C:/ALETube/PressureUpdate/LargeStep/DeformErode/JobErode.odb,Step-1,Increment      1: Step Time =,    10.00,"TUBE-1",         21161,   7.07107E-03,   7.07107E-03,       1.61250,NA,NA,"",  10.00000E-03,            0.,       1.61250,            0.,            0.
C:/ALETube/PressureUpdate/LargeStep/DeformErode/JobErode.odb,Step-1,Increment      1: Step Time =,    10.00,"TUBE-1",         21359,   5.87785E-03,   8.09017E-03,         1.625,NA,NA,"",  10.00000E-03,   867.362E-21,         1.625,            0.,            0.
C:/ALETube/PressureUpdate/LargeStep/DeformErode/JobErode.odb,Step-1,Increment      1: Step Time =,    10.00,"TUBE-1",         21325,   7.07107E-03,   7.07107E-03,         1.625,NA,NA,"",  10.00000E-03,            0.,         1.625,            0.,            0.
C:/ALETube/PressureUpdate/LargeStep/DeformErode/JobErode.odb,Step-1,Increment      1: Step Time =,    10.00,"TUBE-1",         21489,   7.07107E-03,   7.07107E-03,       1.63750,NA,NA,"",  10.00000E-03,            0.,       1.63750,            0.,            0.
C:/ALETube/PressureUpdate/LargeStep/DeformErode/JobErode.odb,Step-1,Increment      1: Step Time =,    10.00,"TUBE-1",         21523,   5.87785E-03,   8.09017E-03,       1.63750,NA,NA,"",  10.00000E-03,   867.362E-21,       1.63750,            0.,            0.
C:/ALETube/PressureUpdate/LargeStep/DeformErode/JobErode.odb,Step-1,Increment      1: Step Time =,    10.00,"TUBE-1",         21687,   5.87785E-03,   8.09017E-03,       1.65000,NA,NA,"",  10.00000E-03,   867.362E-21,       1.65000,            0.,            0.
C:/ALETube/PressureUpdate/LargeStep/DeformErode/JobErode.odb,Step-1,Increment      1: Step Time =,    10.00,"TUBE-1",         21653,   7.07107E-03,   7.07107E-03,       1.65000,NA,NA,"",  10.00000E-03,            0.,       1.65000,            0.,            0.
C:/ALETube/PressureUpdate/LargeStep/DeformErode/JobErode.odb,Step-1,Increment      1: Step Time =,    10.00,"TUBE-1",         21851,   5.87785E-03,   8.09017E-03,       1.66250,NA,NA,"",  10.00000E-03,   867.362E-21,       1.66250,            0.,            0.
C:/ALETube/PressureUpdate/LargeStep/DeformErode/JobErode.odb,Step-1,Increment      1: Step Time =,    10.00,"TUBE-1",         21817,   7.07107E-03,   7.07107E-03,       1.66250,NA,NA,"",  10.00000E-03,            0.,       1.66250,            0.,            0.
C:/ALETube/PressureUpdate/LargeStep/DeformErode/JobErode.odb,Step-1,Increment      1: Step Time =,    10.00,"TUBE-1",         22015,   5.87785E-03,   8.09017E-03,       1.67500,NA,NA,"",  10.00000E-03,   867.362E-21,       1.67500,            0.,            0.
C:/ALETube/PressureUpdate/LargeStep/DeformErode/JobErode.odb,Step-1,Increment      1: Step Time =,    10.00,"TUBE-1",         21981,   7.07107E-03,   7.07107E-03,       1.67500,NA,NA,"",  10.00000E-03,            0.,       1.67500,            0.,            0.
C:/ALETube/PressureUpdate/LargeStep/DeformErode/JobErode.odb,Step-1,Increment      1: Step Time =,    10.00,"TUBE-1",         22179,   5.87785E-03,   8.09017E-03,        1.6875,NA,NA,"",  10.00000E-03,   867.362E-21,        1.6875,            0.,            0.
C:/ALETube/PressureUpdate/LargeStep/DeformErode/JobErode.odb,Step-1,Increment      1: Step Time =,    10.00,"TUBE-1",         22145,   7.07107E-03,   7.07107E-03,        1.6875,NA,NA,"",  10.00000E-03,            0.,        1.6875,            0.,            0.
C:/ALETube/PressureUpdate/LargeStep/DeformErode/JobErode.odb,Step-1,Increment      1: Step Time =,    10.00,"TUBE-1",         22309,   7.07107E-03,   7.07107E-03,       1.70000,NA,NA,"",  10.00000E-03,            0.,       1.70000,            0.,            0.
C:/ALETube/PressureUpdate/LargeStep/DeformErode/JobErode.odb,Step-1,Increment      1: Step Time =,    10.00,"TUBE-1",         22343,   5.87785E-03,   8.09017E-03,       1.70000,NA,NA,"",  10.00000E-03,   867.362E-21,       1.70000,            0.,            0.
C:/ALETube/PressureUpdate/LargeStep/DeformErode/JobErode.odb,Step-1,Increment      1: Step Time =,    10.00,"TUBE-1",         22507,   5.87785E-03,   8.09017E-03,       1.71250,NA,NA,"",  10.00000E-03,   867.362E-21,       1.71250,            0.,            0.
C:/ALETube/PressureUpdate/LargeStep/DeformErode/JobErode.odb,Step-1,Increment      1: Step Time =,    10.00,"TUBE-1",         22473,   7.07107E-03,   7.07107E-03,       1.71250,NA,NA,"",  10.00000E-03,            0.,       1.71250,            0.,            0.
C:/ALETube/PressureUpdate/LargeStep/DeformErode/JobErode.odb,Step-1,Increment      1: Step Time =,    10.00,"TUBE-1",         22671,   5.87785E-03,   8.09017E-03,       1.72500,NA,NA,"",  10.00000E-03,   867.362E-21,       1.72500,            0.,            0.
C:/ALETube/PressureUpdate/LargeStep/DeformErode/JobErode.odb,Step-1,Increment      1: Step Time =,    10.00,"TUBE-1",         22637,   7.07107E-03,   7.07107E-03,       1.72500,NA,NA,"",  10.00000E-03,            0.,       1.72500,            0.,            0.
C:/ALETube/PressureUpdate/LargeStep/DeformErode/JobErode.odb,Step-1,Increment      1: Step Time =,    10.00,"TUBE-1",         22835,   5.87785E-03,   8.09017E-03,       1.73750,NA,NA,"",  10.00000E-03,   867.362E-21,       1.73750,            0.,            0.
C:/ALETube/PressureUpdate/LargeStep/DeformErode/JobErode.odb,Step-1,Increment      1: Step Time =,    10.00,"TUBE-1",         22801,   7.07107E-03,   7.07107E-03,       1.73750,NA,NA,"",  10.00000E-03,            0.,       1.73750,            0.,            0.
C:/ALETube/PressureUpdate/LargeStep/DeformErode/JobErode.odb,Step-1,Increment      1: Step Time =,    10.00,"TUBE-1",         22999,   5.87785E-03,   8.09017E-03,          1.75,NA,NA,"",  10.00000E-03,   867.362E-21,          1.75,            0.,            0.
C:/ALETube/PressureUpdate/LargeStep/DeformErode/JobErode.odb,Step-1,Increment      1: Step Time =,    10.00,"TUBE-1",         22965,   7.07107E-03,   7.07107E-03,          1.75,NA,NA,"",  10.00000E-03,            0.,          1.75,            0.,            0.
C:/ALETube/PressureUpdate/LargeStep/DeformErode/JobErode.odb,Step-1,Increment      1: Step Time =,    10.00,"TUBE-1",         23129,   7.07107E-03,   7.07107E-03,       1.76250,NA,NA,"",  10.00000E-03,            0.,       1.76250,            0.,            0.
C:/ALETube/PressureUpdate/LargeStep/DeformErode/JobErode.odb,Step-1,Increment      1: Step Time =,    10.00,"TUBE-1",         23163,   5.87785E-03,   8.09017E-03,       1.76250,NA,NA,"",  10.00000E-03,   867.362E-21,       1.76250,            0.,            0.
C:/ALETube/PressureUpdate/LargeStep/DeformErode/JobErode.odb,Step-1,Increment      1: Step Time =,    10.00,"TUBE-1",         23327,   5.87785E-03,   8.09017E-03,       1.77500,NA,NA,"",  10.00000E-03,   867.362E-21,       1.77500,            0.,            0.
C:/ALETube/PressureUpdate/LargeStep/DeformErode/JobErode.odb,Step-1,Increment      1: Step Time =,    10.00,"TUBE-1",         23293,   7.07107E-03,   7.07107E-03,       1.77500,NA,NA,"",  10.00000E-03,            0.,       1.77500,            0.,            0.
C:/ALETube/PressureUpdate/LargeStep/DeformErode/JobErode.odb,Step-1,Increment      1: Step Time =,    10.00,"TUBE-1",         23491,   5.87785E-03,   8.09017E-03,       1.78750,NA,NA,"",  10.00000E-03,   867.362E-21,       1.78750,            0.,            0.
C:/ALETube/PressureUpdate/LargeStep/DeformErode/JobErode.odb,Step-1,Increment      1: Step Time =,    10.00,"TUBE-1",         23457,   7.07107E-03,   7.07107E-03,       1.78750,NA,NA,"",  10.00000E-03,            0.,       1.78750,            0.,            0.
C:/ALETube/PressureUpdate/LargeStep/DeformErode/JobErode.odb,Step-1,Increment      1: Step Time =,    10.00,"TUBE-1",         23655,   5.87785E-03,   8.09017E-03,       1.80000,NA,NA,"",  10.00000E-03,   867.362E-21,       1.80000,            0.,            0.
C:/ALETube/PressureUpdate/LargeStep/DeformErode/JobErode.odb,Step-1,Increment      1: Step Time =,    10.00,"TUBE-1",         23621,   7.07107E-03,   7.07107E-03,       1.80000,NA,NA,"",  10.00000E-03,            0.,       1.80000,            0.,            0.
C:/ALETube/PressureUpdate/LargeStep/DeformErode/JobErode.odb,Step-1,Increment      1: Step Time =,    10.00,"TUBE-1",         23819,   5.87785E-03,   8.09017E-03,        1.8125,NA,NA,"",  10.00000E-03,   867.362E-21,        1.8125,            0.,            0.
C:/ALETube/PressureUpdate/LargeStep/DeformErode/JobErode.odb,Step-1,Increment      1: Step Time =,    10.00,"TUBE-1",         23785,   7.07107E-03,   7.07107E-03,        1.8125,NA,NA,"",  10.00000E-03,            0.,        1.8125,            0.,            0.
C:/ALETube/PressureUpdate/LargeStep/DeformErode/JobErode.odb,Step-1,Increment      1: Step Time =,    10.00,"TUBE-1",         23949,   7.07107E-03,   7.07107E-03,       1.82500,NA,NA,"",  10.00000E-03,            0.,       1.82500,            0.,            0.
C:/ALETube/PressureUpdate/LargeStep/DeformErode/JobErode.odb,Step-1,Increment      1: Step Time =,    10.00,"TUBE-1",         23983,   5.87785E-03,   8.09017E-03,       1.82500,NA,NA,"",  10.00000E-03,   867.362E-21,       1.82500,            0.,            0.
C:/ALETube/PressureUpdate/LargeStep/DeformErode/JobErode.odb,Step-1,Increment      1: Step Time =,    10.00,"TUBE-1",         24147,   5.87785E-03,   8.09017E-03,       1.83750,NA,NA,"",  10.00000E-03,   867.362E-21,       1.83750,            0.,            0.
C:/ALETube/PressureUpdate/LargeStep/DeformErode/JobErode.odb,Step-1,Increment      1: Step Time =,    10.00,"TUBE-1",         24113,   7.07107E-03,   7.07107E-03,       1.83750,NA,NA,"",  10.00000E-03,            0.,       1.83750,            0.,            0.
C:/ALETube/PressureUpdate/LargeStep/DeformErode/JobErode.odb,Step-1,Increment      1: Step Time =,    10.00,"TUBE-1",         24311,   5.87785E-03,   8.09017E-03,       1.85000,NA,NA,"",  10.00000E-03,   867.362E-21,       1.85000,            0.,            0.
C:/ALETube/PressureUpdate/LargeStep/DeformErode/JobErode.odb,Step-1,Increment      1: Step Time =,    10.00,"TUBE-1",         24277,   7.07107E-03,   7.07107E-03,       1.85000,NA,NA,"",  10.00000E-03,            0.,       1.85000,            0.,            0.
C:/ALETube/PressureUpdate/LargeStep/DeformErode/JobErode.odb,Step-1,Increment      1: Step Time =,    10.00,"TUBE-1",         24475,   5.87785E-03,   8.09017E-03,       1.86250,NA,NA,"",  10.00000E-03,   867.362E-21,       1.86250,            0.,            0.
C:/ALETube/PressureUpdate/LargeStep/DeformErode/JobErode.odb,Step-1,Increment      1: Step Time =,    10.00,"TUBE-1",         24441,   7.07107E-03,   7.07107E-03,       1.86250,NA,NA,"",  10.00000E-03,            0.,       1.86250,            0.,            0.
C:/ALETube/PressureUpdate/LargeStep/DeformErode/JobErode.odb,Step-1,Increment      1: Step Time =,    10.00,"TUBE-1",         24639,   5.87785E-03,   8.09017E-03,         1.875,NA,NA,"",  10.00000E-03,   867.362E-21,         1.875,            0.,            0.
C:/ALETube/PressureUpdate/LargeStep/DeformErode/JobErode.odb,Step-1,Increment      1: Step Time =,    10.00,"TUBE-1",         24605,   7.07107E-03,   7.07107E-03,         1.875,NA,NA,"",  10.00000E-03,            0.,         1.875,            0.,            0.
C:/ALETube/PressureUpdate/LargeStep/DeformErode/JobErode.odb,Step-1,Increment      1: Step Time =,    10.00,"TUBE-1",         24769,   7.07107E-03,   7.07107E-03,       1.88750,NA,NA,"",  10.00000E-03,            0.,       1.88750,            0.,            0.
C:/ALETube/PressureUpdate/LargeStep/DeformErode/JobErode.odb,Step-1,Increment      1: Step Time =,    10.00,"TUBE-1",         24803,   5.87785E-03,   8.09017E-03,       1.88750,NA,NA,"",  10.00000E-03,   867.362E-21,       1.88750,            0.,            0.
C:/ALETube/PressureUpdate/LargeStep/DeformErode/JobErode.odb,Step-1,Increment      1: Step Time =,    10.00,"TUBE-1",         24967,   5.87785E-03,   8.09017E-03,       1.90000,NA,NA,"",  10.00000E-03,   867.362E-21,       1.90000,            0.,            0.
C:/ALETube/PressureUpdate/LargeStep/DeformErode/JobErode.odb,Step-1,Increment      1: Step Time =,    10.00,"TUBE-1",         24933,   7.07107E-03,   7.07107E-03,       1.90000,NA,NA,"",  10.00000E-03,            0.,       1.90000,            0.,            0.
C:/ALETube/PressureUpdate/LargeStep/DeformErode/JobErode.odb,Step-1,Increment      1: Step Time =,    10.00,"TUBE-1",         25131,   5.87785E-03,   8.09017E-03,       1.91250,NA,NA,"",  10.00000E-03,   867.362E-21,       1.91250,            0.,            0.
C:/ALETube/PressureUpdate/LargeStep/DeformErode/JobErode.odb,Step-1,Increment      1: Step Time =,    10.00,"TUBE-1",         25097,   7.07107E-03,   7.07107E-03,       1.91250,NA,NA,"",  10.00000E-03,            0.,       1.91250,            0.,            0.
C:/ALETube/PressureUpdate/LargeStep/DeformErode/JobErode.odb,Step-1,Increment      1: Step Time =,    10.00,"TUBE-1",         25295,   5.87785E-03,   8.09017E-03,       1.92500,NA,NA,"",  10.00000E-03,   867.362E-21,       1.92500,            0.,            0.
C:/ALETube/PressureUpdate/LargeStep/DeformErode/JobErode.odb,Step-1,Increment      1: Step Time =,    10.00,"TUBE-1",         25261,   7.07107E-03,   7.07107E-03,       1.92500,NA,NA,"",  10.00000E-03,            0.,       1.92500,            0.,            0.
C:/ALETube/PressureUpdate/LargeStep/DeformErode/JobErode.odb,Step-1,Increment      1: Step Time =,    10.00,"TUBE-1",         25459,   5.87785E-03,   8.09017E-03,        1.9375,NA,NA,"",  10.00000E-03,   867.362E-21,        1.9375,            0.,            0.
C:/ALETube/PressureUpdate/LargeStep/DeformErode/JobErode.odb,Step-1,Increment      1: Step Time =,    10.00,"TUBE-1",         25425,   7.07107E-03,   7.07107E-03,        1.9375,NA,NA,"",  10.00000E-03,            0.,        1.9375,            0.,            0.
C:/ALETube/PressureUpdate/LargeStep/DeformErode/JobErode.odb,Step-1,Increment      1: Step Time =,    10.00,"TUBE-1",         25589,   7.07107E-03,   7.07107E-03,       1.95000,NA,NA,"",  10.00000E-03,            0.,       1.95000,            0.,            0.
C:/ALETube/PressureUpdate/LargeStep/DeformErode/JobErode.odb,Step-1,Increment      1: Step Time =,    10.00,"TUBE-1",         25623,   5.87785E-03,   8.09017E-03,       1.95000,NA,NA,"",  10.00000E-03,   867.362E-21,       1.95000,            0.,            0.
C:/ALETube/PressureUpdate/LargeStep/DeformErode/JobErode.odb,Step-1,Increment      1: Step Time =,    10.00,"TUBE-1",         25787,   5.87785E-03,   8.09017E-03,       1.96250,NA,NA,"",  10.00000E-03,   867.362E-21,       1.96250,            0.,            0.
C:/ALETube/PressureUpdate/LargeStep/DeformErode/JobErode.odb,Step-1,Increment      1: Step Time =,    10.00,"TUBE-1",         25753,   7.07107E-03,   7.07107E-03,       1.96250,NA,NA,"",  10.00000E-03,            0.,       1.96250,            0.,            0.
C:/ALETube/PressureUpdate/LargeStep/DeformErode/JobErode.odb,Step-1,Increment      1: Step Time =,    10.00,"TUBE-1",         25951,   5.87785E-03,   8.09017E-03,       1.97500,NA,NA,"",  10.00000E-03,   867.362E-21,       1.97500,            0.,            0.
C:/ALETube/PressureUpdate/LargeStep/DeformErode/JobErode.odb,Step-1,Increment      1: Step Time =,    10.00,"TUBE-1",         25917,   7.07107E-03,   7.07107E-03,       1.97500,NA,NA,"",  10.00000E-03,            0.,       1.97500,            0.,            0.
C:/ALETube/PressureUpdate/LargeStep/DeformErode/JobErode.odb,Step-1,Increment      1: Step Time =,    10.00,"TUBE-1",         26115,   5.87785E-03,   8.09017E-03,       1.98750,NA,NA,"",  10.00000E-03,   867.362E-21,       1.98750,            0.,            0.
C:/ALETube/PressureUpdate/LargeStep/DeformErode/JobErode.odb,Step-1,Increment      1: Step Time =,    10.00,"TUBE-1",         26081,   7.07107E-03,   7.07107E-03,       1.98750,NA,NA,"",  10.00000E-03,            0.,       1.98750,            0.,            0.
C:/ALETube/PressureUpdate/LargeStep/DeformErode/JobErode.odb,Step-1,Increment      1: Step Time =,    10.00,"TUBE-1",         26279,   5.87785E-03,   8.09017E-03,            2.,NA,NA,"",  10.00000E-03,   867.362E-21,            2.,            0.,            0.
C:/ALETube/PressureUpdate/LargeStep/DeformErode/JobErode.odb,Step-1,Increment      1: Step Time =,    10.00,"TUBE-1",         26245,   7.07107E-03,   7.07107E-03,            2.,NA,NA,"",  10.00000E-03,            0.,            2.,            0.,            0.
C:/ALETube/PressureUpdate/LargeStep/DeformErode/JobErode.odb,Step-1,Increment      2: Step Time =,    20.00,"TUBE-1",            39,   5.87785E-03,   8.09017E-03,            0.,NA,NA,"",  10.00000E-03,   867.362E-21,  -17.7110E-21,  -519.596E-15,   230.394E-12
C:/ALETube/PressureUpdate/LargeStep/DeformErode/JobErode.odb,Step-1,Increment      2: Step Time =,    20.00,"TUBE-1",             5,   7.07107E-03,   7.07107E-03,            0.,NA,NA,"",  10.00000E-03,            0.,  -45.2179E-21,   75.2348E-12,   160.782E-12
C:/ALETube/PressureUpdate/LargeStep/DeformErode/JobErode.odb,Step-1,Increment      2: Step Time =,    20.00,"TUBE-1",           203,   5.87785E-03,   8.09017E-03,   12.5000E-03,NA,NA,"",  10.00000E-03,   867.362E-21,   12.5000E-03,  -27.3050E-15,   186.685E-12
C:/ALETube/PressureUpdate/LargeStep/DeformErode/JobErode.odb,Step-1,Increment      2: Step Time =,    20.00,"TUBE-1",           169,   7.07107E-03,   7.07107E-03,   12.5000E-03,NA,NA,"",  10.00000E-03,            0.,   12.5000E-03,   2.67021E-12,   106.729E-12
C:/ALETube/PressureUpdate/LargeStep/DeformErode/JobErode.odb,Step-1,Increment      2: Step Time =,    20.00,"TUBE-1",           333,   7.07107E-03,   7.07107E-03,   25.0000E-03,NA,NA,"",  10.00000E-03,            0.,   25.0000E-03,   2.67021E-12,   104.114E-12
C:/ALETube/PressureUpdate/LargeStep/DeformErode/JobErode.odb,Step-1,Increment      2: Step Time =,    20.00,"TUBE-1",           367,   5.87785E-03,   8.09017E-03,   25.0000E-03,NA,NA,"",  10.00000E-03,   867.362E-21,   25.0000E-03,  -27.3049E-15,   201.697E-12
C:/ALETube/PressureUpdate/LargeStep/DeformErode/JobErode.odb,Step-1,Increment      2: Step Time =,    20.00,"TUBE-1",           531,   5.87785E-03,   8.09017E-03,   37.5000E-03,NA,NA,"",  10.00000E-03,   867.362E-21,   37.5000E-03,  -27.3049E-15,   192.732E-12
C:/ALETube/PressureUpdate/LargeStep/DeformErode/JobErode.odb,Step-1,Increment      2: Step Time =,    20.00,"TUBE-1",           497,   7.07107E-03,   7.07107E-03,   37.5000E-03,NA,NA,"",  10.00000E-03,            0.,   37.5000E-03,   2.67021E-12,   103.467E-12
C:/ALETube/PressureUpdate/LargeStep/DeformErode/JobErode.odb,Step-1,Increment      2: Step Time =,    20.00,"TUBE-1",           695,   5.87785E-03,   8.09017E-03,   50.0000E-03,NA,NA,"",  10.00000E-03,   867.362E-21,   50.0000E-03,  -27.3049E-15,   196.592E-12
C:/ALETube/PressureUpdate/LargeStep/DeformErode/JobErode.odb,Step-1,Increment      2: Step Time =,    20.00,"TUBE-1",           661,   7.07107E-03,   7.07107E-03,   50.0000E-03,NA,NA,"",  10.00000E-03,            0.,   50.0000E-03,   2.67021E-12,   103.631E-12
C:/ALETube/PressureUpdate/LargeStep/DeformErode/JobErode.odb,Step-1,Increment      2: Step Time =,    20.00,"TUBE-1",           825,   7.07107E-03,   7.07107E-03,      62.5E-03,NA,NA,"",  10.00000E-03,            0.,      62.5E-03,   2.67021E-12,   102.871E-12
C:/ALETube/PressureUpdate/LargeStep/DeformErode/JobErode.odb,Step-1,Increment      2: Step Time =,    20.00,"TUBE-1",           859,   5.87785E-03,   8.09017E-03,      62.5E-03,NA,NA,"",  10.00000E-03,   867.362E-21,      62.5E-03,  -27.3049E-15,   193.631E-12
C:/ALETube/PressureUpdate/LargeStep/DeformErode/JobErode.odb,Step-1,Increment      2: Step Time =,    20.00,"TUBE-1",          1023,   5.87785E-03,   8.09017E-03,   75.0000E-03,NA,NA,"",  10.00000E-03,   867.362E-21,   75.0000E-03,  -27.3049E-15,   195.446E-12
C:/ALETube/PressureUpdate/LargeStep/DeformErode/JobErode.odb,Step-1,Increment      2: Step Time =,    20.00,"TUBE-1",           989,   7.07107E-03,   7.07107E-03,   75.0000E-03,NA,NA,"",  10.00000E-03,            0.,   75.0000E-03,   2.67021E-12,   103.855E-12
C:/ALETube/PressureUpdate/LargeStep/DeformErode/JobErode.odb,Step-1,Increment      2: Step Time =,    20.00,"TUBE-1",          1187,   5.87785E-03,   8.09017E-03,   87.5000E-03,NA,NA,"",  10.00000E-03,   867.362E-21,   87.5000E-03,  -27.3049E-15,   194.268E-12
C:/ALETube/PressureUpdate/LargeStep/DeformErode/JobErode.odb,Step-1,Increment      2: Step Time =,    20.00,"TUBE-1",          1153,   7.07107E-03,   7.07107E-03,   87.5000E-03,NA,NA,"",  10.00000E-03,            0.,   87.5000E-03,   2.67021E-12,   101.686E-12
C:/ALETube/PressureUpdate/LargeStep/DeformErode/JobErode.odb,Step-1,Increment      2: Step Time =,    20.00,"TUBE-1",          1351,   5.87785E-03,   8.09017E-03,   100.000E-03,NA,NA,"",  10.00000E-03,   867.362E-21,   100.000E-03,  -27.3049E-15,   195.878E-12
C:/ALETube/PressureUpdate/LargeStep/DeformErode/JobErode.odb,Step-1,Increment      2: Step Time =,    20.00,"TUBE-1",          1317,   7.07107E-03,   7.07107E-03,   100.000E-03,NA,NA,"",  10.00000E-03,            0.,   100.000E-03,   2.67021E-12,   106.219E-12
C:/ALETube/PressureUpdate/LargeStep/DeformErode/JobErode.odb,Step-1,Increment      2: Step Time =,    20.00,"TUBE-1",          1515,   5.87785E-03,   8.09017E-03,   112.500E-03,NA,NA,"",  10.00000E-03,   867.362E-21,   112.500E-03,  -27.3049E-15,   192.963E-12
C:/ALETube/PressureUpdate/LargeStep/DeformErode/JobErode.odb,Step-1,Increment      2: Step Time =,    20.00,"TUBE-1",          1481,   7.07107E-03,   7.07107E-03,   112.500E-03,NA,NA,"",  10.00000E-03,            0.,   112.500E-03,   2.67021E-12,   97.3045E-12
C:/ALETube/PressureUpdate/LargeStep/DeformErode/JobErode.odb,Step-1,Increment      2: Step Time =,    20.00,"TUBE-1",          1645,   7.07107E-03,   7.07107E-03,      125.E-03,NA,NA,"",  10.00000E-03,            0.,      125.E-03,   2.67021E-12,   257.307E-12
C:/ALETube/PressureUpdate/LargeStep/DeformErode/JobErode.odb,Step-1,Increment      2: Step Time =,    20.00,"TUBE-1",          1679,   5.87785E-03,   8.09017E-03,      125.E-03,NA,NA,"",  10.00000E-03,   867.362E-21,      125.E-03,  -27.3049E-15,   182.978E-12
C:/ALETube/PressureUpdate/LargeStep/DeformErode/JobErode.odb,Step-1,Increment      2: Step Time =,    20.00,"TUBE-1",          1843,   5.87785E-03,   8.09017E-03,   137.500E-03,NA,NA,"",  10.00000E-03,   867.362E-21,   137.500E-03,  -27.3049E-15,   182.418E-12
C:/ALETube/PressureUpdate/LargeStep/DeformErode/JobErode.odb,Step-1,Increment      2: Step Time =,    20.00,"TUBE-1",          1809,   7.07107E-03,   7.07107E-03,   137.500E-03,NA,NA,"",  10.00000E-03,            0.,   137.500E-03,   2.67021E-12,   259.619E-12
C:/ALETube/PressureUpdate/LargeStep/DeformErode/JobErode.odb,Step-1,Increment      2: Step Time =,    20.00,"TUBE-1",          2007,   5.87785E-03,   8.09017E-03,   150.000E-03,NA,NA,"",  10.00000E-03,   867.362E-21,   150.000E-03,  -27.3050E-15,   196.361E-12
C:/ALETube/PressureUpdate/LargeStep/DeformErode/JobErode.odb,Step-1,Increment      2: Step Time =,    20.00,"TUBE-1",          1973,   7.07107E-03,   7.07107E-03,   150.000E-03,NA,NA,"",  10.00000E-03,            0.,   150.000E-03,   2.67021E-12,   157.240E-12
C:/ALETube/PressureUpdate/LargeStep/DeformErode/JobErode.odb,Step-1,Increment      2: Step Time =,    20.00,"TUBE-1",          2171,   5.87785E-03,   8.09017E-03,   162.500E-03,NA,NA,"",  10.00000E-03,   867.362E-21,   162.500E-03,  -27.3050E-15,   195.644E-12
C:/ALETube/PressureUpdate/LargeStep/DeformErode/JobErode.odb,Step-1,Increment      2: Step Time =,    20.00,"TUBE-1",          2137,   7.07107E-03,   7.07107E-03,   162.500E-03,NA,NA,"",  10.00000E-03,            0.,   162.500E-03,   2.67021E-12,   157.498E-12
C:/ALETube/PressureUpdate/LargeStep/DeformErode/JobErode.odb,Step-1,Increment      2: Step Time =,    20.00,"TUBE-1",          2335,   5.87785E-03,   8.09017E-03,   175.000E-03,NA,NA,"",  10.00000E-03,   867.362E-21,   175.000E-03,  -27.3049E-15,   183.699E-12
C:/ALETube/PressureUpdate/LargeStep/DeformErode/JobErode.odb,Step-1,Increment      2: Step Time =,    20.00,"TUBE-1",          2301,   7.07107E-03,   7.07107E-03,   175.000E-03,NA,NA,"",  10.00000E-03,            0.,   175.000E-03,   2.67021E-12,   259.129E-12
C:/ALETube/PressureUpdate/LargeStep/DeformErode/JobErode.odb,Step-1,Increment      2: Step Time =,    20.00,"TUBE-1",          2465,   7.07107E-03,   7.07107E-03,     187.5E-03,NA,NA,"",  10.00000E-03,            0.,     187.5E-03,   2.67021E-12,   258.611E-12
C:/ALETube/PressureUpdate/LargeStep/DeformErode/JobErode.odb,Step-1,Increment      2: Step Time =,    20.00,"TUBE-1",          2499,   5.87785E-03,   8.09017E-03,     187.5E-03,NA,NA,"",  10.00000E-03,   867.362E-21,     187.5E-03,  -27.3049E-15,   180.389E-12
C:/ALETube/PressureUpdate/LargeStep/DeformErode/JobErode.odb,Step-1,Increment      2: Step Time =,    20.00,"TUBE-1",          2663,   5.87785E-03,   8.09017E-03,   200.000E-03,NA,NA,"",  10.00000E-03,   867.362E-21,   200.000E-03,  -27.3049E-15,   183.485E-12
C:/ALETube/PressureUpdate/LargeStep/DeformErode/JobErode.odb,Step-1,Increment      2: Step Time =,    20.00,"TUBE-1",          2629,   7.07107E-03,   7.07107E-03,   200.000E-03,NA,NA,"",  10.00000E-03,            0.,   200.000E-03,   2.67021E-12,   259.029E-12
C:/ALETube/PressureUpdate/LargeStep/DeformErode/JobErode.odb,Step-1,Increment      2: Step Time =,    20.00,"TUBE-1",          2827,   5.87785E-03,   8.09017E-03,   212.500E-03,NA,NA,"",  10.00000E-03,   867.362E-21,   212.500E-03,  -27.3050E-15,   196.290E-12
C:/ALETube/PressureUpdate/LargeStep/DeformErode/JobErode.odb,Step-1,Increment      2: Step Time =,    20.00,"TUBE-1",          2793,   7.07107E-03,   7.07107E-03,   212.500E-03,NA,NA,"",  10.00000E-03,            0.,   212.500E-03,   2.67021E-12,   157.687E-12
C:/ALETube/PressureUpdate/LargeStep/DeformErode/JobErode.odb,Step-1,Increment      2: Step Time =,    20.00,"TUBE-1",          2991,   5.87785E-03,   8.09017E-03,   225.000E-03,NA,NA,"",  10.00000E-03,   867.362E-21,   225.000E-03,  -27.3050E-15,   194.886E-12
C:/ALETube/PressureUpdate/LargeStep/DeformErode/JobErode.odb,Step-1,Increment      2: Step Time =,    20.00,"TUBE-1",          2957,   7.07107E-03,   7.07107E-03,   225.000E-03,NA,NA,"",  10.00000E-03,            0.,   225.000E-03,   2.67021E-12,   157.125E-12
C:/ALETube/PressureUpdate/LargeStep/DeformErode/JobErode.odb,Step-1,Increment      2: Step Time =,    20.00,"TUBE-1",          3155,   5.87785E-03,   8.09017E-03,   237.500E-03,NA,NA,"",  10.00000E-03,   867.362E-21,   237.500E-03,  -27.3049E-15,   186.276E-12
C:/ALETube/PressureUpdate/LargeStep/DeformErode/JobErode.odb,Step-1,Increment      2: Step Time =,    20.00,"TUBE-1",          3121,   7.07107E-03,   7.07107E-03,   237.500E-03,NA,NA,"",  10.00000E-03,            0.,   237.500E-03,   2.67021E-12,   260.213E-12
C:/ALETube/PressureUpdate/LargeStep/DeformErode/JobErode.odb,Step-1,Increment      2: Step Time =,    20.00,"TUBE-1",          3285,   7.07107E-03,   7.07107E-03,      250.E-03,NA,NA,"",  10.00000E-03,            0.,      250.E-03,   2.67021E-12,   157.289E-12
C:/ALETube/PressureUpdate/LargeStep/DeformErode/JobErode.odb,Step-1,Increment      2: Step Time =,    20.00,"TUBE-1",          3319,   5.87785E-03,   8.09017E-03,      250.E-03,NA,NA,"",  10.00000E-03,   867.362E-21,      250.E-03,  -27.3050E-15,   192.336E-12
C:/ALETube/PressureUpdate/LargeStep/DeformErode/JobErode.odb,Step-1,Increment      2: Step Time =,    20.00,"TUBE-1",          3483,   5.87785E-03,   8.09017E-03,   262.500E-03,NA,NA,"",  10.00000E-03,   867.362E-21,   262.500E-03,  -27.3049E-15,   184.876E-12
C:/ALETube/PressureUpdate/LargeStep/DeformErode/JobErode.odb,Step-1,Increment      2: Step Time =,    20.00,"TUBE-1",          3449,   7.07107E-03,   7.07107E-03,   262.500E-03,NA,NA,"",  10.00000E-03,            0.,   262.500E-03,   2.67021E-12,   259.920E-12
C:/ALETube/PressureUpdate/LargeStep/DeformErode/JobErode.odb,Step-1,Increment      2: Step Time =,    20.00,"TUBE-1",          3647,   5.87785E-03,   8.09017E-03,   275.000E-03,NA,NA,"",  10.00000E-03,   867.362E-21,   275.000E-03,  -27.3049E-15,   179.793E-12
C:/ALETube/PressureUpdate/LargeStep/DeformErode/JobErode.odb,Step-1,Increment      2: Step Time =,    20.00,"TUBE-1",          3613,   7.07107E-03,   7.07107E-03,   275.000E-03,NA,NA,"",  10.00000E-03,            0.,   275.000E-03,   2.67021E-12,   257.853E-12
C:/ALETube/PressureUpdate/LargeStep/DeformErode/JobErode.odb,Step-1,Increment      2: Step Time =,    20.00,"TUBE-1",          3811,   5.87785E-03,   8.09017E-03,   287.500E-03,NA,NA,"",  10.00000E-03,   867.362E-21,   287.500E-03,  -27.3049E-15,   184.230E-12
C:/ALETube/PressureUpdate/LargeStep/DeformErode/JobErode.odb,Step-1,Increment      2: Step Time =,    20.00,"TUBE-1",          3777,   7.07107E-03,   7.07107E-03,   287.500E-03,NA,NA,"",  10.00000E-03,            0.,   287.500E-03,   2.67021E-12,   261.165E-12
C:/ALETube/PressureUpdate/LargeStep/DeformErode/JobErode.odb,Step-1,Increment      2: Step Time =,    20.00,"TUBE-1",          3975,   5.87785E-03,   8.09017E-03,   300.000E-03,NA,NA,"",  10.00000E-03,   867.362E-21,   300.000E-03,  -27.3049E-15,   179.362E-12
C:/ALETube/PressureUpdate/LargeStep/DeformErode/JobErode.odb,Step-1,Increment      2: Step Time =,    20.00,"TUBE-1",          3941,   7.07107E-03,   7.07107E-03,   300.000E-03,NA,NA,"",  10.00000E-03,            0.,   300.000E-03,   2.67021E-12,   258.492E-12
C:/ALETube/PressureUpdate/LargeStep/DeformErode/JobErode.odb,Step-1,Increment      2: Step Time =,    20.00,"TUBE-1",          4105,   7.07107E-03,   7.07107E-03,     312.5E-03,NA,NA,"",  10.00000E-03,            0.,     312.5E-03,   2.67021E-12,   196.300E-12
C:/ALETube/PressureUpdate/LargeStep/DeformErode/JobErode.odb,Step-1,Increment      2: Step Time =,    20.00,"TUBE-1",          4139,   5.87785E-03,   8.09017E-03,     312.5E-03,NA,NA,"",  10.00000E-03,   867.362E-21,     312.5E-03,  -27.3049E-15,   202.960E-12
C:/ALETube/PressureUpdate/LargeStep/DeformErode/JobErode.odb,Step-1,Increment      2: Step Time =,    20.00,"TUBE-1",          4303,   5.87785E-03,   8.09017E-03,   325.000E-03,NA,NA,"",  10.00000E-03,   867.362E-21,   325.000E-03,  -27.3049E-15,   179.499E-12
C:/ALETube/PressureUpdate/LargeStep/DeformErode/JobErode.odb,Step-1,Increment      2: Step Time =,    20.00,"TUBE-1",          4269,   7.07107E-03,   7.07107E-03,   325.000E-03,NA,NA,"",  10.00000E-03,            0.,   325.000E-03,   2.67021E-12,   258.531E-12
C:/ALETube/PressureUpdate/LargeStep/DeformErode/JobErode.odb,Step-1,Increment      2: Step Time =,    20.00,"TUBE-1",          4467,   5.87785E-03,   8.09017E-03,   337.500E-03,NA,NA,"",  10.00000E-03,   867.362E-21,   337.500E-03,  -27.3049E-15,   182.955E-12
C:/ALETube/PressureUpdate/LargeStep/DeformErode/JobErode.odb,Step-1,Increment      2: Step Time =,    20.00,"TUBE-1",          4433,   7.07107E-03,   7.07107E-03,   337.500E-03,NA,NA,"",  10.00000E-03,            0.,   337.500E-03,   2.67021E-12,   260.178E-12
C:/ALETube/PressureUpdate/LargeStep/DeformErode/JobErode.odb,Step-1,Increment      2: Step Time =,    20.00,"TUBE-1",          4631,   5.87785E-03,   8.09017E-03,   350.000E-03,NA,NA,"",  10.00000E-03,   867.362E-21,   350.000E-03,  -27.3049E-15,   182.915E-12
C:/ALETube/PressureUpdate/LargeStep/DeformErode/JobErode.odb,Step-1,Increment      2: Step Time =,    20.00,"TUBE-1",          4597,   7.07107E-03,   7.07107E-03,   350.000E-03,NA,NA,"",  10.00000E-03,            0.,   350.000E-03,   2.67021E-12,   260.139E-12
C:/ALETube/PressureUpdate/LargeStep/DeformErode/JobErode.odb,Step-1,Increment      2: Step Time =,    20.00,"TUBE-1",          4795,   5.87785E-03,   8.09017E-03,   362.500E-03,NA,NA,"",  10.00000E-03,   867.362E-21,   362.500E-03,  -27.3049E-15,   179.518E-12
C:/ALETube/PressureUpdate/LargeStep/DeformErode/JobErode.odb,Step-1,Increment      2: Step Time =,    20.00,"TUBE-1",          4761,   7.07107E-03,   7.07107E-03,   362.500E-03,NA,NA,"",  10.00000E-03,            0.,   362.500E-03,   2.67021E-12,   258.542E-12
C:/ALETube/PressureUpdate/LargeStep/DeformErode/JobErode.odb,Step-1,Increment      2: Step Time =,    20.00,"TUBE-1",          4925,   7.07107E-03,   7.07107E-03,      375.E-03,NA,NA,"",  10.00000E-03,            0.,      375.E-03,   2.67021E-12,   196.307E-12
C:/ALETube/PressureUpdate/LargeStep/DeformErode/JobErode.odb,Step-1,Increment      2: Step Time =,    20.00,"TUBE-1",          4959,   5.87785E-03,   8.09017E-03,      375.E-03,NA,NA,"",  10.00000E-03,   867.362E-21,      375.E-03,  -27.3049E-15,   202.943E-12
C:/ALETube/PressureUpdate/LargeStep/DeformErode/JobErode.odb,Step-1,Increment      2: Step Time =,    20.00,"TUBE-1",          5123,   5.87785E-03,   8.09017E-03,   387.500E-03,NA,NA,"",  10.00000E-03,   867.362E-21,   387.500E-03,  -27.3049E-15,   179.517E-12
C:/ALETube/PressureUpdate/LargeStep/DeformErode/JobErode.odb,Step-1,Increment      2: Step Time =,    20.00,"TUBE-1",          5089,   7.07107E-03,   7.07107E-03,   387.500E-03,NA,NA,"",  10.00000E-03,            0.,   387.500E-03,   2.67021E-12,   258.541E-12
C:/ALETube/PressureUpdate/LargeStep/DeformErode/JobErode.odb,Step-1,Increment      2: Step Time =,    20.00,"TUBE-1",          5287,   5.87785E-03,   8.09017E-03,   400.000E-03,NA,NA,"",  10.00000E-03,   867.362E-21,   400.000E-03,  -27.3049E-15,   182.922E-12
C:/ALETube/PressureUpdate/LargeStep/DeformErode/JobErode.odb,Step-1,Increment      2: Step Time =,    20.00,"TUBE-1",          5253,   7.07107E-03,   7.07107E-03,   400.000E-03,NA,NA,"",  10.00000E-03,            0.,   400.000E-03,   2.67021E-12,   260.150E-12
C:/ALETube/PressureUpdate/LargeStep/DeformErode/JobErode.odb,Step-1,Increment      2: Step Time =,    20.00,"TUBE-1",          5451,   5.87785E-03,   8.09017E-03,   412.500E-03,NA,NA,"",  10.00000E-03,   867.362E-21,   412.500E-03,  -27.3049E-15,   182.936E-12
C:/ALETube/PressureUpdate/LargeStep/DeformErode/JobErode.odb,Step-1,Increment      2: Step Time =,    20.00,"TUBE-1",          5417,   7.07107E-03,   7.07107E-03,   412.500E-03,NA,NA,"",  10.00000E-03,            0.,   412.500E-03,   2.67021E-12,   260.153E-12
C:/ALETube/PressureUpdate/LargeStep/DeformErode/JobErode.odb,Step-1,Increment      2: Step Time =,    20.00,"TUBE-1",          5615,   5.87785E-03,   8.09017E-03,   425.000E-03,NA,NA,"",  10.00000E-03,   867.362E-21,   425.000E-03,  -27.3049E-15,   179.512E-12
C:/ALETube/PressureUpdate/LargeStep/DeformErode/JobErode.odb,Step-1,Increment      2: Step Time =,    20.00,"TUBE-1",          5581,   7.07107E-03,   7.07107E-03,   425.000E-03,NA,NA,"",  10.00000E-03,            0.,   425.000E-03,   2.67021E-12,   258.553E-12
C:/ALETube/PressureUpdate/LargeStep/DeformErode/JobErode.odb,Step-1,Increment      2: Step Time =,    20.00,"TUBE-1",          5745,   7.07107E-03,   7.07107E-03,     437.5E-03,NA,NA,"",  10.00000E-03,            0.,     437.5E-03,   2.67021E-12,   196.318E-12
C:/ALETube/PressureUpdate/LargeStep/DeformErode/JobErode.odb,Step-1,Increment      2: Step Time =,    20.00,"TUBE-1",          5779,   5.87785E-03,   8.09017E-03,     437.5E-03,NA,NA,"",  10.00000E-03,   867.362E-21,     437.5E-03,  -27.3049E-15,   202.948E-12
C:/ALETube/PressureUpdate/LargeStep/DeformErode/JobErode.odb,Step-1,Increment      2: Step Time =,    20.00,"TUBE-1",          5943,   5.87785E-03,   8.09017E-03,   450.000E-03,NA,NA,"",  10.00000E-03,   867.362E-21,   450.000E-03,  -27.3049E-15,   179.492E-12
C:/ALETube/PressureUpdate/LargeStep/DeformErode/JobErode.odb,Step-1,Increment      2: Step Time =,    20.00,"TUBE-1",          5909,   7.07107E-03,   7.07107E-03,   450.000E-03,NA,NA,"",  10.00000E-03,            0.,   450.000E-03,   2.67021E-12,   258.594E-12
C:/ALETube/PressureUpdate/LargeStep/DeformErode/JobErode.odb,Step-1,Increment      2: Step Time =,    20.00,"TUBE-1",          6107,   5.87785E-03,   8.09017E-03,   462.500E-03,NA,NA,"",  10.00000E-03,   867.362E-21,   462.500E-03,  -27.3049E-15,   183.295E-12
C:/ALETube/PressureUpdate/LargeStep/DeformErode/JobErode.odb,Step-1,Increment      2: Step Time =,    20.00,"TUBE-1",          6073,   7.07107E-03,   7.07107E-03,   462.500E-03,NA,NA,"",  10.00000E-03,            0.,   462.500E-03,   2.67021E-12,   260.388E-12
C:/ALETube/PressureUpdate/LargeStep/DeformErode/JobErode.odb,Step-1,Increment      2: Step Time =,    20.00,"TUBE-1",          6271,   5.87785E-03,   8.09017E-03,   475.000E-03,NA,NA,"",  10.00000E-03,   867.362E-21,   475.000E-03,  -27.3049E-15,   182.113E-12
C:/ALETube/PressureUpdate/LargeStep/DeformErode/JobErode.odb,Step-1,Increment      2: Step Time =,    20.00,"TUBE-1",          6237,   7.07107E-03,   7.07107E-03,   475.000E-03,NA,NA,"",  10.00000E-03,            0.,   475.000E-03,   2.67021E-12,   259.496E-12
C:/ALETube/PressureUpdate/LargeStep/DeformErode/JobErode.odb,Step-1,Increment      2: Step Time =,    20.00,"TUBE-1",          6435,   5.87785E-03,   8.09017E-03,   487.500E-03,NA,NA,"",  10.00000E-03,   867.362E-21,   487.500E-03,  -27.3049E-15,   180.269E-12
C:/ALETube/PressureUpdate/LargeStep/DeformErode/JobErode.odb,Step-1,Increment      2: Step Time =,    20.00,"TUBE-1",          6401,   7.07107E-03,   7.07107E-03,   487.500E-03,NA,NA,"",  10.00000E-03,            0.,   487.500E-03,   2.67021E-12,   257.760E-12
C:/ALETube/PressureUpdate/LargeStep/DeformErode/JobErode.odb,Step-1,Increment      2: Step Time =,    20.00,"TUBE-1",          6565,   7.07107E-03,   7.07107E-03,      500.E-03,NA,NA,"",  10.00000E-03,            0.,      500.E-03,   2.67021E-12,   201.672E-12
C:/ALETube/PressureUpdate/LargeStep/DeformErode/JobErode.odb,Step-1,Increment      2: Step Time =,    20.00,"TUBE-1",          6599,   5.87785E-03,   8.09017E-03,      500.E-03,NA,NA,"",  10.00000E-03,   867.362E-21,      500.E-03,  -27.3050E-15,   203.363E-12
C:/ALETube/PressureUpdate/LargeStep/DeformErode/JobErode.odb,Step-1,Increment      2: Step Time =,    20.00,"TUBE-1",          6763,   5.87785E-03,   8.09017E-03,   512.500E-03,NA,NA,"",  10.00000E-03,   867.362E-21,   512.500E-03,  -27.3050E-15,   206.531E-12
C:/ALETube/PressureUpdate/LargeStep/DeformErode/JobErode.odb,Step-1,Increment      2: Step Time =,    20.00,"TUBE-1",          6729,   7.07107E-03,   7.07107E-03,   512.500E-03,NA,NA,"",  10.00000E-03,            0.,   512.500E-03,   2.67021E-12,   208.628E-12
C:/ALETube/PressureUpdate/LargeStep/DeformErode/JobErode.odb,Step-1,Increment      2: Step Time =,    20.00,"TUBE-1",          6927,   5.87785E-03,   8.09017E-03,   525.000E-03,NA,NA,"",  10.00000E-03,   867.362E-21,   525.000E-03,  -27.3050E-15,   192.291E-12
C:/ALETube/PressureUpdate/LargeStep/DeformErode/JobErode.odb,Step-1,Increment      2: Step Time =,    20.00,"TUBE-1",          6893,   7.07107E-03,   7.07107E-03,   525.000E-03,NA,NA,"",  10.00000E-03,            0.,   525.000E-03,   2.67020E-12,   104.579E-12
C:/ALETube/PressureUpdate/LargeStep/DeformErode/JobErode.odb,Step-1,Increment      2: Step Time =,    20.00,"TUBE-1",          7091,   5.87785E-03,   8.09017E-03,   537.500E-03,NA,NA,"",  10.00000E-03,   867.362E-21,   537.500E-03,  -27.3050E-15,   191.498E-12
C:/ALETube/PressureUpdate/LargeStep/DeformErode/JobErode.odb,Step-1,Increment      2: Step Time =,    20.00,"TUBE-1",          7057,   7.07107E-03,   7.07107E-03,   537.500E-03,NA,NA,"",  10.00000E-03,            0.,   537.500E-03,   2.67020E-12,   108.330E-12
C:/ALETube/PressureUpdate/LargeStep/DeformErode/JobErode.odb,Step-1,Increment      2: Step Time =,    20.00,"TUBE-1",          7255,   5.87785E-03,   8.09017E-03,   550.000E-03,NA,NA,"",  10.00000E-03,   867.362E-21,   550.000E-03,  -27.3050E-15,   205.111E-12
C:/ALETube/PressureUpdate/LargeStep/DeformErode/JobErode.odb,Step-1,Increment      2: Step Time =,    20.00,"TUBE-1",          7221,   7.07107E-03,   7.07107E-03,   550.000E-03,NA,NA,"",  10.00000E-03,            0.,   550.000E-03,   2.67021E-12,   204.878E-12
C:/ALETube/PressureUpdate/LargeStep/DeformErode/JobErode.odb,Step-1,Increment      2: Step Time =,    20.00,"TUBE-1",          7385,   7.07107E-03,   7.07107E-03,     562.5E-03,NA,NA,"",  10.00000E-03,            0.,     562.5E-03,   2.67021E-12,   212.627E-12
C:/ALETube/PressureUpdate/LargeStep/DeformErode/JobErode.odb,Step-1,Increment      2: Step Time =,    20.00,"TUBE-1",          7419,   5.87785E-03,   8.09017E-03,     562.5E-03,NA,NA,"",  10.00000E-03,   867.362E-21,     562.5E-03,  -27.3050E-15,   207.749E-12
C:/ALETube/PressureUpdate/LargeStep/DeformErode/JobErode.odb,Step-1,Increment      2: Step Time =,    20.00,"TUBE-1",          7583,   5.87785E-03,   8.09017E-03,   575.000E-03,NA,NA,"",  10.00000E-03,   867.362E-21,   575.000E-03,  -27.3050E-15,   205.158E-12
C:/ALETube/PressureUpdate/LargeStep/DeformErode/JobErode.odb,Step-1,Increment      2: Step Time =,    20.00,"TUBE-1",          7549,   7.07107E-03,   7.07107E-03,   575.000E-03,NA,NA,"",  10.00000E-03,            0.,   575.000E-03,   2.67021E-12,   204.993E-12
C:/ALETube/PressureUpdate/LargeStep/DeformErode/JobErode.odb,Step-1,Increment      2: Step Time =,    20.00,"TUBE-1",          7747,   5.87785E-03,   8.09017E-03,   587.500E-03,NA,NA,"",  10.00000E-03,   867.362E-21,   587.500E-03,  -27.3050E-15,   191.744E-12
C:/ALETube/PressureUpdate/LargeStep/DeformErode/JobErode.odb,Step-1,Increment      2: Step Time =,    20.00,"TUBE-1",          7713,   7.07107E-03,   7.07107E-03,   587.500E-03,NA,NA,"",  10.00000E-03,            0.,   587.500E-03,   2.67020E-12,   107.369E-12
C:/ALETube/PressureUpdate/LargeStep/DeformErode/JobErode.odb,Step-1,Increment      2: Step Time =,    20.00,"TUBE-1",          7911,   5.87785E-03,   8.09017E-03,   600.000E-03,NA,NA,"",  10.00000E-03,   867.362E-21,   600.000E-03,  -27.3050E-15,   191.753E-12
C:/ALETube/PressureUpdate/LargeStep/DeformErode/JobErode.odb,Step-1,Increment      2: Step Time =,    20.00,"TUBE-1",          7877,   7.07107E-03,   7.07107E-03,   600.000E-03,NA,NA,"",  10.00000E-03,            0.,   600.000E-03,   2.67020E-12,   107.336E-12
C:/ALETube/PressureUpdate/LargeStep/DeformErode/JobErode.odb,Step-1,Increment      2: Step Time =,    20.00,"TUBE-1",          8075,   5.87785E-03,   8.09017E-03,   612.500E-03,NA,NA,"",  10.00000E-03,   867.362E-21,   612.500E-03,  -27.3050E-15,   205.167E-12
C:/ALETube/PressureUpdate/LargeStep/DeformErode/JobErode.odb,Step-1,Increment      2: Step Time =,    20.00,"TUBE-1",          8041,   7.07107E-03,   7.07107E-03,   612.500E-03,NA,NA,"",  10.00000E-03,            0.,   612.500E-03,   2.67021E-12,   205.008E-12
C:/ALETube/PressureUpdate/LargeStep/DeformErode/JobErode.odb,Step-1,Increment      2: Step Time =,    20.00,"TUBE-1",          8205,   7.07107E-03,   7.07107E-03,      625.E-03,NA,NA,"",  10.00000E-03,            0.,      625.E-03,   2.67021E-12,   212.555E-12
C:/ALETube/PressureUpdate/LargeStep/DeformErode/JobErode.odb,Step-1,Increment      2: Step Time =,    20.00,"TUBE-1",          8239,   5.87785E-03,   8.09017E-03,      625.E-03,NA,NA,"",  10.00000E-03,   867.362E-21,      625.E-03,  -27.3050E-15,   207.692E-12
C:/ALETube/PressureUpdate/LargeStep/DeformErode/JobErode.odb,Step-1,Increment      2: Step Time =,    20.00,"TUBE-1",          8403,   5.87785E-03,   8.09017E-03,   637.500E-03,NA,NA,"",  10.00000E-03,   867.362E-21,   637.500E-03,  -27.3050E-15,   205.167E-12
C:/ALETube/PressureUpdate/LargeStep/DeformErode/JobErode.odb,Step-1,Increment      2: Step Time =,    20.00,"TUBE-1",          8369,   7.07107E-03,   7.07107E-03,   637.500E-03,NA,NA,"",  10.00000E-03,            0.,   637.500E-03,   2.67021E-12,   205.007E-12
C:/ALETube/PressureUpdate/LargeStep/DeformErode/JobErode.odb,Step-1,Increment      2: Step Time =,    20.00,"TUBE-1",          8567,   5.87785E-03,   8.09017E-03,   650.000E-03,NA,NA,"",  10.00000E-03,   867.362E-21,   650.000E-03,  -27.3050E-15,   191.750E-12
C:/ALETube/PressureUpdate/LargeStep/DeformErode/JobErode.odb,Step-1,Increment      2: Step Time =,    20.00,"TUBE-1",          8533,   7.07107E-03,   7.07107E-03,   650.000E-03,NA,NA,"",  10.00000E-03,            0.,   650.000E-03,   2.67020E-12,   107.344E-12
C:/ALETube/PressureUpdate/LargeStep/DeformErode/JobErode.odb,Step-1,Increment      2: Step Time =,    20.00,"TUBE-1",          8731,   5.87785E-03,   8.09017E-03,   662.500E-03,NA,NA,"",  10.00000E-03,   867.362E-21,   662.500E-03,  -27.3050E-15,   191.750E-12
C:/ALETube/PressureUpdate/LargeStep/DeformErode/JobErode.odb,Step-1,Increment      2: Step Time =,    20.00,"TUBE-1",          8697,   7.07107E-03,   7.07107E-03,   662.500E-03,NA,NA,"",  10.00000E-03,            0.,   662.500E-03,   2.67020E-12,   107.345E-12
C:/ALETube/PressureUpdate/LargeStep/DeformErode/JobErode.odb,Step-1,Increment      2: Step Time =,    20.00,"TUBE-1",          8895,   5.87785E-03,   8.09017E-03,   675.000E-03,NA,NA,"",  10.00000E-03,   867.362E-21,   675.000E-03,  -27.3050E-15,   205.166E-12
C:/ALETube/PressureUpdate/LargeStep/DeformErode/JobErode.odb,Step-1,Increment      2: Step Time =,    20.00,"TUBE-1",          8861,   7.07107E-03,   7.07107E-03,   675.000E-03,NA,NA,"",  10.00000E-03,            0.,   675.000E-03,   2.67021E-12,   205.007E-12
C:/ALETube/PressureUpdate/LargeStep/DeformErode/JobErode.odb,Step-1,Increment      2: Step Time =,    20.00,"TUBE-1",          9025,   7.07107E-03,   7.07107E-03,     687.5E-03,NA,NA,"",  10.00000E-03,            0.,     687.5E-03,   2.67021E-12,   212.556E-12
C:/ALETube/PressureUpdate/LargeStep/DeformErode/JobErode.odb,Step-1,Increment      2: Step Time =,    20.00,"TUBE-1",          9059,   5.87785E-03,   8.09017E-03,     687.5E-03,NA,NA,"",  10.00000E-03,   867.362E-21,     687.5E-03,  -27.3050E-15,   207.692E-12
C:/ALETube/PressureUpdate/LargeStep/DeformErode/JobErode.odb,Step-1,Increment      2: Step Time =,    20.00,"TUBE-1",          9223,   5.87785E-03,   8.09017E-03,   700.000E-03,NA,NA,"",  10.00000E-03,   867.362E-21,   700.000E-03,  -27.3050E-15,   205.166E-12
C:/ALETube/PressureUpdate/LargeStep/DeformErode/JobErode.odb,Step-1,Increment      2: Step Time =,    20.00,"TUBE-1",          9189,   7.07107E-03,   7.07107E-03,   700.000E-03,NA,NA,"",  10.00000E-03,            0.,   700.000E-03,   2.67021E-12,   205.007E-12
C:/ALETube/PressureUpdate/LargeStep/DeformErode/JobErode.odb,Step-1,Increment      2: Step Time =,    20.00,"TUBE-1",          9387,   5.87785E-03,   8.09017E-03,   712.500E-03,NA,NA,"",  10.00000E-03,   867.362E-21,   712.500E-03,  -27.3050E-15,   191.750E-12
C:/ALETube/PressureUpdate/LargeStep/DeformErode/JobErode.odb,Step-1,Increment      2: Step Time =,    20.00,"TUBE-1",          9353,   7.07107E-03,   7.07107E-03,   712.500E-03,NA,NA,"",  10.00000E-03,            0.,   712.500E-03,   2.67020E-12,   107.345E-12
C:/ALETube/PressureUpdate/LargeStep/DeformErode/JobErode.odb,Step-1,Increment      2: Step Time =,    20.00,"TUBE-1",          9551,   5.87785E-03,   8.09017E-03,   725.000E-03,NA,NA,"",  10.00000E-03,   867.362E-21,   725.000E-03,  -27.3050E-15,   191.750E-12
C:/ALETube/PressureUpdate/LargeStep/DeformErode/JobErode.odb,Step-1,Increment      2: Step Time =,    20.00,"TUBE-1",          9517,   7.07107E-03,   7.07107E-03,   725.000E-03,NA,NA,"",  10.00000E-03,            0.,   725.000E-03,   2.67020E-12,   107.345E-12
C:/ALETube/PressureUpdate/LargeStep/DeformErode/JobErode.odb,Step-1,Increment      2: Step Time =,    20.00,"TUBE-1",          9715,   5.87785E-03,   8.09017E-03,   737.500E-03,NA,NA,"",  10.00000E-03,   867.362E-21,   737.500E-03,  -27.3050E-15,   205.166E-12
C:/ALETube/PressureUpdate/LargeStep/DeformErode/JobErode.odb,Step-1,Increment      2: Step Time =,    20.00,"TUBE-1",          9681,   7.07107E-03,   7.07107E-03,   737.500E-03,NA,NA,"",  10.00000E-03,            0.,   737.500E-03,   2.67021E-12,   205.007E-12
C:/ALETube/PressureUpdate/LargeStep/DeformErode/JobErode.odb,Step-1,Increment      2: Step Time =,    20.00,"TUBE-1",          9845,   7.07107E-03,   7.07107E-03,      750.E-03,NA,NA,"",  10.00000E-03,            0.,      750.E-03,   2.67021E-12,   212.556E-12
C:/ALETube/PressureUpdate/LargeStep/DeformErode/JobErode.odb,Step-1,Increment      2: Step Time =,    20.00,"TUBE-1",          9879,   5.87785E-03,   8.09017E-03,      750.E-03,NA,NA,"",  10.00000E-03,   867.362E-21,      750.E-03,  -27.3050E-15,   207.692E-12
C:/ALETube/PressureUpdate/LargeStep/DeformErode/JobErode.odb,Step-1,Increment      2: Step Time =,    20.00,"TUBE-1",         10043,   5.87785E-03,   8.09017E-03,   762.500E-03,NA,NA,"",  10.00000E-03,   867.362E-21,   762.500E-03,  -27.3050E-15,   205.166E-12
C:/ALETube/PressureUpdate/LargeStep/DeformErode/JobErode.odb,Step-1,Increment      2: Step Time =,    20.00,"TUBE-1",         10009,   7.07107E-03,   7.07107E-03,   762.500E-03,NA,NA,"",  10.00000E-03,            0.,   762.500E-03,   2.67021E-12,   205.007E-12
C:/ALETube/PressureUpdate/LargeStep/DeformErode/JobErode.odb,Step-1,Increment      2: Step Time =,    20.00,"TUBE-1",         10207,   5.87785E-03,   8.09017E-03,   775.000E-03,NA,NA,"",  10.00000E-03,   867.362E-21,   775.000E-03,  -27.3050E-15,   191.750E-12
C:/ALETube/PressureUpdate/LargeStep/DeformErode/JobErode.odb,Step-1,Increment      2: Step Time =,    20.00,"TUBE-1",         10173,   7.07107E-03,   7.07107E-03,   775.000E-03,NA,NA,"",  10.00000E-03,            0.,   775.000E-03,   2.67020E-12,   107.345E-12
C:/ALETube/PressureUpdate/LargeStep/DeformErode/JobErode.odb,Step-1,Increment      2: Step Time =,    20.00,"TUBE-1",         10371,   5.87785E-03,   8.09017E-03,   787.500E-03,NA,NA,"",  10.00000E-03,   867.362E-21,   787.500E-03,  -27.3050E-15,   191.750E-12
C:/ALETube/PressureUpdate/LargeStep/DeformErode/JobErode.odb,Step-1,Increment      2: Step Time =,    20.00,"TUBE-1",         10337,   7.07107E-03,   7.07107E-03,   787.500E-03,NA,NA,"",  10.00000E-03,            0.,   787.500E-03,   2.67020E-12,   107.345E-12
C:/ALETube/PressureUpdate/LargeStep/DeformErode/JobErode.odb,Step-1,Increment      2: Step Time =,    20.00,"TUBE-1",         10535,   5.87785E-03,   8.09017E-03,   800.000E-03,NA,NA,"",  10.00000E-03,   867.362E-21,   800.000E-03,  -27.3050E-15,   205.166E-12
C:/ALETube/PressureUpdate/LargeStep/DeformErode/JobErode.odb,Step-1,Increment      2: Step Time =,    20.00,"TUBE-1",         10501,   7.07107E-03,   7.07107E-03,   800.000E-03,NA,NA,"",  10.00000E-03,            0.,   800.000E-03,   2.67021E-12,   205.007E-12
C:/ALETube/PressureUpdate/LargeStep/DeformErode/JobErode.odb,Step-1,Increment      2: Step Time =,    20.00,"TUBE-1",         10665,   7.07107E-03,   7.07107E-03,     812.5E-03,NA,NA,"",  10.00000E-03,            0.,     812.5E-03,   2.67021E-12,   212.556E-12
C:/ALETube/PressureUpdate/LargeStep/DeformErode/JobErode.odb,Step-1,Increment      2: Step Time =,    20.00,"TUBE-1",         10699,   5.87785E-03,   8.09017E-03,     812.5E-03,NA,NA,"",  10.00000E-03,   867.362E-21,     812.5E-03,  -27.3050E-15,   207.692E-12
C:/ALETube/PressureUpdate/LargeStep/DeformErode/JobErode.odb,Step-1,Increment      2: Step Time =,    20.00,"TUBE-1",         10863,   5.87785E-03,   8.09017E-03,   825.000E-03,NA,NA,"",  10.00000E-03,   867.362E-21,   825.000E-03,  -27.3050E-15,   205.166E-12
C:/ALETube/PressureUpdate/LargeStep/DeformErode/JobErode.odb,Step-1,Increment      2: Step Time =,    20.00,"TUBE-1",         10829,   7.07107E-03,   7.07107E-03,   825.000E-03,NA,NA,"",  10.00000E-03,            0.,   825.000E-03,   2.67021E-12,   205.007E-12
C:/ALETube/PressureUpdate/LargeStep/DeformErode/JobErode.odb,Step-1,Increment      2: Step Time =,    20.00,"TUBE-1",         11027,   5.87785E-03,   8.09017E-03,   837.500E-03,NA,NA,"",  10.00000E-03,   867.362E-21,   837.500E-03,  -27.3050E-15,   191.750E-12
C:/ALETube/PressureUpdate/LargeStep/DeformErode/JobErode.odb,Step-1,Increment      2: Step Time =,    20.00,"TUBE-1",         10993,   7.07107E-03,   7.07107E-03,   837.500E-03,NA,NA,"",  10.00000E-03,            0.,   837.500E-03,   2.67020E-12,   107.345E-12
C:/ALETube/PressureUpdate/LargeStep/DeformErode/JobErode.odb,Step-1,Increment      2: Step Time =,    20.00,"TUBE-1",         11191,   5.87785E-03,   8.09017E-03,   850.000E-03,NA,NA,"",  10.00000E-03,   867.362E-21,   850.000E-03,  -27.3050E-15,   191.749E-12
C:/ALETube/PressureUpdate/LargeStep/DeformErode/JobErode.odb,Step-1,Increment      2: Step Time =,    20.00,"TUBE-1",         11157,   7.07107E-03,   7.07107E-03,   850.000E-03,NA,NA,"",  10.00000E-03,            0.,   850.000E-03,   2.67020E-12,   107.345E-12
C:/ALETube/PressureUpdate/LargeStep/DeformErode/JobErode.odb,Step-1,Increment      2: Step Time =,    20.00,"TUBE-1",         11355,   5.87785E-03,   8.09017E-03,   862.500E-03,NA,NA,"",  10.00000E-03,   867.362E-21,   862.500E-03,  -27.3050E-15,   205.167E-12
C:/ALETube/PressureUpdate/LargeStep/DeformErode/JobErode.odb,Step-1,Increment      2: Step Time =,    20.00,"TUBE-1",         11321,   7.07107E-03,   7.07107E-03,   862.500E-03,NA,NA,"",  10.00000E-03,            0.,   862.500E-03,   2.67021E-12,   205.008E-12
C:/ALETube/PressureUpdate/LargeStep/DeformErode/JobErode.odb,Step-1,Increment      2: Step Time =,    20.00,"TUBE-1",         11485,   7.07107E-03,   7.07107E-03,      875.E-03,NA,NA,"",  10.00000E-03,            0.,      875.E-03,   2.67021E-12,   212.554E-12
C:/ALETube/PressureUpdate/LargeStep/DeformErode/JobErode.odb,Step-1,Increment      2: Step Time =,    20.00,"TUBE-1",         11519,   5.87785E-03,   8.09017E-03,      875.E-03,NA,NA,"",  10.00000E-03,   867.362E-21,      875.E-03,  -27.3050E-15,   207.693E-12
C:/ALETube/PressureUpdate/LargeStep/DeformErode/JobErode.odb,Step-1,Increment      2: Step Time =,    20.00,"TUBE-1",         11683,   5.87785E-03,   8.09017E-03,   887.500E-03,NA,NA,"",  10.00000E-03,   867.362E-21,   887.500E-03,  -27.3050E-15,   205.168E-12
C:/ALETube/PressureUpdate/LargeStep/DeformErode/JobErode.odb,Step-1,Increment      2: Step Time =,    20.00,"TUBE-1",         11649,   7.07107E-03,   7.07107E-03,   887.500E-03,NA,NA,"",  10.00000E-03,            0.,   887.500E-03,   2.67021E-12,   205.010E-12
C:/ALETube/PressureUpdate/LargeStep/DeformErode/JobErode.odb,Step-1,Increment      2: Step Time =,    20.00,"TUBE-1",         11847,   5.87785E-03,   8.09017E-03,   900.000E-03,NA,NA,"",  10.00000E-03,   867.362E-21,   900.000E-03,  -27.3050E-15,   191.737E-12
C:/ALETube/PressureUpdate/LargeStep/DeformErode/JobErode.odb,Step-1,Increment      2: Step Time =,    20.00,"TUBE-1",         11813,   7.07107E-03,   7.07107E-03,   900.000E-03,NA,NA,"",  10.00000E-03,            0.,   900.000E-03,   2.67020E-12,   107.351E-12
C:/ALETube/PressureUpdate/LargeStep/DeformErode/JobErode.odb,Step-1,Increment      2: Step Time =,    20.00,"TUBE-1",         12011,   5.87785E-03,   8.09017E-03,   912.500E-03,NA,NA,"",  10.00000E-03,   867.362E-21,   912.500E-03,  -27.3050E-15,   191.778E-12
C:/ALETube/PressureUpdate/LargeStep/DeformErode/JobErode.odb,Step-1,Increment      2: Step Time =,    20.00,"TUBE-1",         11977,   7.07107E-03,   7.07107E-03,   912.500E-03,NA,NA,"",  10.00000E-03,            0.,   912.500E-03,   2.67020E-12,   107.321E-12
C:/ALETube/PressureUpdate/LargeStep/DeformErode/JobErode.odb,Step-1,Increment      2: Step Time =,    20.00,"TUBE-1",         12175,   5.87785E-03,   8.09017E-03,   925.000E-03,NA,NA,"",  10.00000E-03,   867.362E-21,   925.000E-03,  -27.3050E-15,   205.165E-12
C:/ALETube/PressureUpdate/LargeStep/DeformErode/JobErode.odb,Step-1,Increment      2: Step Time =,    20.00,"TUBE-1",         12141,   7.07107E-03,   7.07107E-03,   925.000E-03,NA,NA,"",  10.00000E-03,            0.,   925.000E-03,   2.67021E-12,   205.003E-12
C:/ALETube/PressureUpdate/LargeStep/DeformErode/JobErode.odb,Step-1,Increment      2: Step Time =,    20.00,"TUBE-1",         12305,   7.07107E-03,   7.07107E-03,     937.5E-03,NA,NA,"",  10.00000E-03,            0.,     937.5E-03,   2.67021E-12,   212.488E-12
C:/ALETube/PressureUpdate/LargeStep/DeformErode/JobErode.odb,Step-1,Increment      2: Step Time =,    20.00,"TUBE-1",         12339,   5.87785E-03,   8.09017E-03,     937.5E-03,NA,NA,"",  10.00000E-03,   867.362E-21,     937.5E-03,  -27.3050E-15,   207.604E-12
C:/ALETube/PressureUpdate/LargeStep/DeformErode/JobErode.odb,Step-1,Increment      2: Step Time =,    20.00,"TUBE-1",         12503,   5.87785E-03,   8.09017E-03,   950.000E-03,NA,NA,"",  10.00000E-03,   867.362E-21,   950.000E-03,  -27.3050E-15,   205.191E-12
C:/ALETube/PressureUpdate/LargeStep/DeformErode/JobErode.odb,Step-1,Increment      2: Step Time =,    20.00,"TUBE-1",         12469,   7.07107E-03,   7.07107E-03,   950.000E-03,NA,NA,"",  10.00000E-03,            0.,   950.000E-03,   2.67021E-12,   205.127E-12
C:/ALETube/PressureUpdate/LargeStep/DeformErode/JobErode.odb,Step-1,Increment      2: Step Time =,    20.00,"TUBE-1",         12667,   5.87785E-03,   8.09017E-03,   962.500E-03,NA,NA,"",  10.00000E-03,   867.362E-21,   962.500E-03,  -27.3050E-15,   192.687E-12
C:/ALETube/PressureUpdate/LargeStep/DeformErode/JobErode.odb,Step-1,Increment      2: Step Time =,    20.00,"TUBE-1",         12633,   7.07107E-03,   7.07107E-03,   962.500E-03,NA,NA,"",  10.00000E-03,            0.,   962.500E-03,   2.67020E-12,   105.689E-12
C:/ALETube/PressureUpdate/LargeStep/DeformErode/JobErode.odb,Step-1,Increment      2: Step Time =,    20.00,"TUBE-1",         12831,   5.87785E-03,   8.09017E-03,   975.000E-03,NA,NA,"",  10.00000E-03,   867.362E-21,   975.000E-03,  -27.3050E-15,   189.662E-12
C:/ALETube/PressureUpdate/LargeStep/DeformErode/JobErode.odb,Step-1,Increment      2: Step Time =,    20.00,"TUBE-1",         12797,   7.07107E-03,   7.07107E-03,   975.000E-03,NA,NA,"",  10.00000E-03,            0.,   975.000E-03,   2.67020E-12,   112.688E-12
C:/ALETube/PressureUpdate/LargeStep/DeformErode/JobErode.odb,Step-1,Increment      2: Step Time =,    20.00,"TUBE-1",         12995,   5.87785E-03,   8.09017E-03,   987.500E-03,NA,NA,"",  10.00000E-03,   867.362E-21,   987.500E-03,  -27.3049E-15,   206.593E-12
C:/ALETube/PressureUpdate/LargeStep/DeformErode/JobErode.odb,Step-1,Increment      2: Step Time =,    20.00,"TUBE-1",         12961,   7.07107E-03,   7.07107E-03,   987.500E-03,NA,NA,"",  10.00000E-03,            0.,   987.500E-03,   2.67021E-12,   200.624E-12
C:/ALETube/PressureUpdate/LargeStep/DeformErode/JobErode.odb,Step-1,Increment      2: Step Time =,    20.00,"TUBE-1",         13125,   7.07107E-03,   7.07107E-03,            1.,NA,NA,"",  10.00000E-03,            0.,            1.,   2.67020E-12,   131.067E-12
C:/ALETube/PressureUpdate/LargeStep/DeformErode/JobErode.odb,Step-1,Increment      2: Step Time =,    20.00,"TUBE-1",         13159,   5.87785E-03,   8.09017E-03,            1.,NA,NA,"",  10.00000E-03,   867.362E-21,            1.,  -27.3050E-15,   187.061E-12
C:/ALETube/PressureUpdate/LargeStep/DeformErode/JobErode.odb,Step-1,Increment      2: Step Time =,    20.00,"TUBE-1",         13323,   5.87785E-03,   8.09017E-03,       1.01250,NA,NA,"",  10.00000E-03,   867.362E-21,       1.01250,  -27.3049E-15,   204.121E-12
C:/ALETube/PressureUpdate/LargeStep/DeformErode/JobErode.odb,Step-1,Increment      2: Step Time =,    20.00,"TUBE-1",         13289,   7.07107E-03,   7.07107E-03,       1.01250,NA,NA,"",  10.00000E-03,            0.,       1.01250,   2.67021E-12,   199.184E-12
C:/ALETube/PressureUpdate/LargeStep/DeformErode/JobErode.odb,Step-1,Increment      2: Step Time =,    20.00,"TUBE-1",         13487,   5.87785E-03,   8.09017E-03,       1.02500,NA,NA,"",  10.00000E-03,   867.362E-21,       1.02500,  -27.3049E-15,   201.569E-12
C:/ALETube/PressureUpdate/LargeStep/DeformErode/JobErode.odb,Step-1,Increment      2: Step Time =,    20.00,"TUBE-1",         13453,   7.07107E-03,   7.07107E-03,       1.02500,NA,NA,"",  10.00000E-03,            0.,       1.02500,   2.67022E-12,   243.106E-12
C:/ALETube/PressureUpdate/LargeStep/DeformErode/JobErode.odb,Step-1,Increment      2: Step Time =,    20.00,"TUBE-1",         13617,   7.07107E-03,   7.07107E-03,       1.03750,NA,NA,"",  10.00000E-03,            0.,       1.03750,   2.67022E-12,   242.738E-12
C:/ALETube/PressureUpdate/LargeStep/DeformErode/JobErode.odb,Step-1,Increment      2: Step Time =,    20.00,"TUBE-1",         13651,   5.87785E-03,   8.09017E-03,       1.03750,NA,NA,"",  10.00000E-03,   867.362E-21,       1.03750,  -27.3049E-15,   199.707E-12
C:/ALETube/PressureUpdate/LargeStep/DeformErode/JobErode.odb,Step-1,Increment      2: Step Time =,    20.00,"TUBE-1",         13815,   5.87785E-03,   8.09017E-03,       1.05000,NA,NA,"",  10.00000E-03,   867.362E-21,       1.05000,  -27.3049E-15,   206.091E-12
C:/ALETube/PressureUpdate/LargeStep/DeformErode/JobErode.odb,Step-1,Increment      2: Step Time =,    20.00,"TUBE-1",         13781,   7.07107E-03,   7.07107E-03,       1.05000,NA,NA,"",  10.00000E-03,            0.,       1.05000,   2.67021E-12,   203.544E-12
C:/ALETube/PressureUpdate/LargeStep/DeformErode/JobErode.odb,Step-1,Increment      2: Step Time =,    20.00,"TUBE-1",         13979,   5.87785E-03,   8.09017E-03,        1.0625,NA,NA,"",  10.00000E-03,   867.362E-21,        1.0625,  -27.3050E-15,   185.972E-12
C:/ALETube/PressureUpdate/LargeStep/DeformErode/JobErode.odb,Step-1,Increment      2: Step Time =,    20.00,"TUBE-1",         13945,   7.07107E-03,   7.07107E-03,        1.0625,NA,NA,"",  10.00000E-03,            0.,        1.0625,   2.67019E-12,   249.966E-12
C:/ALETube/PressureUpdate/LargeStep/DeformErode/JobErode.odb,Step-1,Increment      2: Step Time =,    20.00,"TUBE-1",         14109,   7.07107E-03,   7.07107E-03,       1.07500,NA,NA,"",  10.00000E-03,            0.,       1.07500,   2.67021E-12,   203.290E-12
C:/ALETube/PressureUpdate/LargeStep/DeformErode/JobErode.odb,Step-1,Increment      2: Step Time =,    20.00,"TUBE-1",         14143,   5.87785E-03,   8.09017E-03,       1.07500,NA,NA,"",  10.00000E-03,   867.362E-21,       1.07500,  -27.3049E-15,   205.943E-12
C:/ALETube/PressureUpdate/LargeStep/DeformErode/JobErode.odb,Step-1,Increment      2: Step Time =,    20.00,"TUBE-1",         14307,   5.87785E-03,   8.09017E-03,       1.08750,NA,NA,"",  10.00000E-03,   867.362E-21,       1.08750,  -27.3049E-15,   200.199E-12
C:/ALETube/PressureUpdate/LargeStep/DeformErode/JobErode.odb,Step-1,Increment      2: Step Time =,    20.00,"TUBE-1",         14273,   7.07107E-03,   7.07107E-03,       1.08750,NA,NA,"",  10.00000E-03,            0.,       1.08750,   2.67022E-12,   242.776E-12
C:/ALETube/PressureUpdate/LargeStep/DeformErode/JobErode.odb,Step-1,Increment      2: Step Time =,    20.00,"TUBE-1",         14471,   5.87785E-03,   8.09017E-03,       1.10000,NA,NA,"",  10.00000E-03,   867.362E-21,       1.10000,  -27.3049E-15,   200.216E-12
C:/ALETube/PressureUpdate/LargeStep/DeformErode/JobErode.odb,Step-1,Increment      2: Step Time =,    20.00,"TUBE-1",         14437,   7.07107E-03,   7.07107E-03,       1.10000,NA,NA,"",  10.00000E-03,            0.,       1.10000,   2.67022E-12,   242.784E-12
C:/ALETube/PressureUpdate/LargeStep/DeformErode/JobErode.odb,Step-1,Increment      2: Step Time =,    20.00,"TUBE-1",         14635,   5.87785E-03,   8.09017E-03,       1.11250,NA,NA,"",  10.00000E-03,   867.362E-21,       1.11250,  -27.3049E-15,   205.905E-12
C:/ALETube/PressureUpdate/LargeStep/DeformErode/JobErode.odb,Step-1,Increment      2: Step Time =,    20.00,"TUBE-1",         14601,   7.07107E-03,   7.07107E-03,       1.11250,NA,NA,"",  10.00000E-03,            0.,       1.11250,   2.67021E-12,   203.231E-12
C:/ALETube/PressureUpdate/LargeStep/DeformErode/JobErode.odb,Step-1,Increment      2: Step Time =,    20.00,"TUBE-1",         14799,   5.87785E-03,   8.09017E-03,         1.125,NA,NA,"",  10.00000E-03,   867.362E-21,         1.125,  -27.3050E-15,   186.047E-12
C:/ALETube/PressureUpdate/LargeStep/DeformErode/JobErode.odb,Step-1,Increment      2: Step Time =,    20.00,"TUBE-1",         14765,   7.07107E-03,   7.07107E-03,         1.125,NA,NA,"",  10.00000E-03,            0.,         1.125,   2.67019E-12,   250.195E-12
C:/ALETube/PressureUpdate/LargeStep/DeformErode/JobErode.odb,Step-1,Increment      2: Step Time =,    20.00,"TUBE-1",         14929,   7.07107E-03,   7.07107E-03,       1.13750,NA,NA,"",  10.00000E-03,            0.,       1.13750,   2.67021E-12,   203.234E-12
C:/ALETube/PressureUpdate/LargeStep/DeformErode/JobErode.odb,Step-1,Increment      2: Step Time =,    20.00,"TUBE-1",         14963,   5.87785E-03,   8.09017E-03,       1.13750,NA,NA,"",  10.00000E-03,   867.362E-21,       1.13750,  -27.3049E-15,   205.907E-12
C:/ALETube/PressureUpdate/LargeStep/DeformErode/JobErode.odb,Step-1,Increment      2: Step Time =,    20.00,"TUBE-1",         15127,   5.87785E-03,   8.09017E-03,       1.15000,NA,NA,"",  10.00000E-03,   867.362E-21,       1.15000,  -27.3049E-15,   200.212E-12
C:/ALETube/PressureUpdate/LargeStep/DeformErode/JobErode.odb,Step-1,Increment      2: Step Time =,    20.00,"TUBE-1",         15093,   7.07107E-03,   7.07107E-03,       1.15000,NA,NA,"",  10.00000E-03,            0.,       1.15000,   2.67022E-12,   242.781E-12
C:/ALETube/PressureUpdate/LargeStep/DeformErode/JobErode.odb,Step-1,Increment      2: Step Time =,    20.00,"TUBE-1",         15291,   5.87785E-03,   8.09017E-03,       1.16250,NA,NA,"",  10.00000E-03,   867.362E-21,       1.16250,  -27.3049E-15,   200.211E-12
C:/ALETube/PressureUpdate/LargeStep/DeformErode/JobErode.odb,Step-1,Increment      2: Step Time =,    20.00,"TUBE-1",         15257,   7.07107E-03,   7.07107E-03,       1.16250,NA,NA,"",  10.00000E-03,            0.,       1.16250,   2.67022E-12,   242.781E-12
C:/ALETube/PressureUpdate/LargeStep/DeformErode/JobErode.odb,Step-1,Increment      2: Step Time =,    20.00,"TUBE-1",         15455,   5.87785E-03,   8.09017E-03,       1.17500,NA,NA,"",  10.00000E-03,   867.362E-21,       1.17500,  -27.3049E-15,   205.908E-12
C:/ALETube/PressureUpdate/LargeStep/DeformErode/JobErode.odb,Step-1,Increment      2: Step Time =,    20.00,"TUBE-1",         15421,   7.07107E-03,   7.07107E-03,       1.17500,NA,NA,"",  10.00000E-03,            0.,       1.17500,   2.67021E-12,   203.235E-12
C:/ALETube/PressureUpdate/LargeStep/DeformErode/JobErode.odb,Step-1,Increment      2: Step Time =,    20.00,"TUBE-1",         15619,   5.87785E-03,   8.09017E-03,        1.1875,NA,NA,"",  10.00000E-03,   867.362E-21,        1.1875,  -27.3050E-15,   186.045E-12
C:/ALETube/PressureUpdate/LargeStep/DeformErode/JobErode.odb,Step-1,Increment      2: Step Time =,    20.00,"TUBE-1",         15585,   7.07107E-03,   7.07107E-03,        1.1875,NA,NA,"",  10.00000E-03,            0.,        1.1875,   2.67019E-12,   250.192E-12
C:/ALETube/PressureUpdate/LargeStep/DeformErode/JobErode.odb,Step-1,Increment      2: Step Time =,    20.00,"TUBE-1",         15749,   7.07107E-03,   7.07107E-03,       1.20000,NA,NA,"",  10.00000E-03,            0.,       1.20000,   2.67021E-12,   203.235E-12
C:/ALETube/PressureUpdate/LargeStep/DeformErode/JobErode.odb,Step-1,Increment      2: Step Time =,    20.00,"TUBE-1",         15783,   5.87785E-03,   8.09017E-03,       1.20000,NA,NA,"",  10.00000E-03,   867.362E-21,       1.20000,  -27.3049E-15,   205.908E-12
C:/ALETube/PressureUpdate/LargeStep/DeformErode/JobErode.odb,Step-1,Increment      2: Step Time =,    20.00,"TUBE-1",         15947,   5.87785E-03,   8.09017E-03,       1.21250,NA,NA,"",  10.00000E-03,   867.362E-21,       1.21250,  -27.3049E-15,   200.211E-12
C:/ALETube/PressureUpdate/LargeStep/DeformErode/JobErode.odb,Step-1,Increment      2: Step Time =,    20.00,"TUBE-1",         15913,   7.07107E-03,   7.07107E-03,       1.21250,NA,NA,"",  10.00000E-03,            0.,       1.21250,   2.67022E-12,   242.781E-12
C:/ALETube/PressureUpdate/LargeStep/DeformErode/JobErode.odb,Step-1,Increment      2: Step Time =,    20.00,"TUBE-1",         16111,   5.87785E-03,   8.09017E-03,       1.22500,NA,NA,"",  10.00000E-03,   867.362E-21,       1.22500,  -27.3049E-15,   200.211E-12
C:/ALETube/PressureUpdate/LargeStep/DeformErode/JobErode.odb,Step-1,Increment      2: Step Time =,    20.00,"TUBE-1",         16077,   7.07107E-03,   7.07107E-03,       1.22500,NA,NA,"",  10.00000E-03,            0.,       1.22500,   2.67022E-12,   242.781E-12
C:/ALETube/PressureUpdate/LargeStep/DeformErode/JobErode.odb,Step-1,Increment      2: Step Time =,    20.00,"TUBE-1",         16275,   5.87785E-03,   8.09017E-03,       1.23750,NA,NA,"",  10.00000E-03,   867.362E-21,       1.23750,  -27.3049E-15,   205.908E-12
C:/ALETube/PressureUpdate/LargeStep/DeformErode/JobErode.odb,Step-1,Increment      2: Step Time =,    20.00,"TUBE-1",         16241,   7.07107E-03,   7.07107E-03,       1.23750,NA,NA,"",  10.00000E-03,            0.,       1.23750,   2.67021E-12,   203.235E-12
C:/ALETube/PressureUpdate/LargeStep/DeformErode/JobErode.odb,Step-1,Increment      2: Step Time =,    20.00,"TUBE-1",         16439,   5.87785E-03,   8.09017E-03,          1.25,NA,NA,"",  10.00000E-03,   867.362E-21,          1.25,  -27.3050E-15,   186.045E-12
C:/ALETube/PressureUpdate/LargeStep/DeformErode/JobErode.odb,Step-1,Increment      2: Step Time =,    20.00,"TUBE-1",         16405,   7.07107E-03,   7.07107E-03,          1.25,NA,NA,"",  10.00000E-03,            0.,          1.25,   2.67019E-12,   250.192E-12
C:/ALETube/PressureUpdate/LargeStep/DeformErode/JobErode.odb,Step-1,Increment      2: Step Time =,    20.00,"TUBE-1",         16569,   7.07107E-03,   7.07107E-03,       1.26250,NA,NA,"",  10.00000E-03,            0.,       1.26250,   2.67021E-12,   203.235E-12
C:/ALETube/PressureUpdate/LargeStep/DeformErode/JobErode.odb,Step-1,Increment      2: Step Time =,    20.00,"TUBE-1",         16603,   5.87785E-03,   8.09017E-03,       1.26250,NA,NA,"",  10.00000E-03,   867.362E-21,       1.26250,  -27.3049E-15,   205.908E-12
C:/ALETube/PressureUpdate/LargeStep/DeformErode/JobErode.odb,Step-1,Increment      2: Step Time =,    20.00,"TUBE-1",         16767,   5.87785E-03,   8.09017E-03,       1.27500,NA,NA,"",  10.00000E-03,   867.362E-21,       1.27500,  -27.3049E-15,   200.211E-12
C:/ALETube/PressureUpdate/LargeStep/DeformErode/JobErode.odb,Step-1,Increment      2: Step Time =,    20.00,"TUBE-1",         16733,   7.07107E-03,   7.07107E-03,       1.27500,NA,NA,"",  10.00000E-03,            0.,       1.27500,   2.67022E-12,   242.781E-12
C:/ALETube/PressureUpdate/LargeStep/DeformErode/JobErode.odb,Step-1,Increment      2: Step Time =,    20.00,"TUBE-1",         16931,   5.87785E-03,   8.09017E-03,       1.28750,NA,NA,"",  10.00000E-03,   867.362E-21,       1.28750,  -27.3049E-15,   200.211E-12
C:/ALETube/PressureUpdate/LargeStep/DeformErode/JobErode.odb,Step-1,Increment      2: Step Time =,    20.00,"TUBE-1",         16897,   7.07107E-03,   7.07107E-03,       1.28750,NA,NA,"",  10.00000E-03,            0.,       1.28750,   2.67022E-12,   242.781E-12
C:/ALETube/PressureUpdate/LargeStep/DeformErode/JobErode.odb,Step-1,Increment      2: Step Time =,    20.00,"TUBE-1",         17095,   5.87785E-03,   8.09017E-03,       1.30000,NA,NA,"",  10.00000E-03,   867.362E-21,       1.30000,  -27.3049E-15,   205.908E-12
C:/ALETube/PressureUpdate/LargeStep/DeformErode/JobErode.odb,Step-1,Increment      2: Step Time =,    20.00,"TUBE-1",         17061,   7.07107E-03,   7.07107E-03,       1.30000,NA,NA,"",  10.00000E-03,            0.,       1.30000,   2.67021E-12,   203.235E-12
C:/ALETube/PressureUpdate/LargeStep/DeformErode/JobErode.odb,Step-1,Increment      2: Step Time =,    20.00,"TUBE-1",         17259,   5.87785E-03,   8.09017E-03,        1.3125,NA,NA,"",  10.00000E-03,   867.362E-21,        1.3125,  -27.3050E-15,   186.045E-12
C:/ALETube/PressureUpdate/LargeStep/DeformErode/JobErode.odb,Step-1,Increment      2: Step Time =,    20.00,"TUBE-1",         17225,   7.07107E-03,   7.07107E-03,        1.3125,NA,NA,"",  10.00000E-03,            0.,        1.3125,   2.67019E-12,   250.192E-12
C:/ALETube/PressureUpdate/LargeStep/DeformErode/JobErode.odb,Step-1,Increment      2: Step Time =,    20.00,"TUBE-1",         17389,   7.07107E-03,   7.07107E-03,       1.32500,NA,NA,"",  10.00000E-03,            0.,       1.32500,   2.67021E-12,   203.235E-12
C:/ALETube/PressureUpdate/LargeStep/DeformErode/JobErode.odb,Step-1,Increment      2: Step Time =,    20.00,"TUBE-1",         17423,   5.87785E-03,   8.09017E-03,       1.32500,NA,NA,"",  10.00000E-03,   867.362E-21,       1.32500,  -27.3049E-15,   205.908E-12
C:/ALETube/PressureUpdate/LargeStep/DeformErode/JobErode.odb,Step-1,Increment      2: Step Time =,    20.00,"TUBE-1",         17587,   5.87785E-03,   8.09017E-03,       1.33750,NA,NA,"",  10.00000E-03,   867.362E-21,       1.33750,  -27.3049E-15,   200.211E-12
C:/ALETube/PressureUpdate/LargeStep/DeformErode/JobErode.odb,Step-1,Increment      2: Step Time =,    20.00,"TUBE-1",         17553,   7.07107E-03,   7.07107E-03,       1.33750,NA,NA,"",  10.00000E-03,            0.,       1.33750,   2.67022E-12,   242.781E-12
C:/ALETube/PressureUpdate/LargeStep/DeformErode/JobErode.odb,Step-1,Increment      2: Step Time =,    20.00,"TUBE-1",         17751,   5.87785E-03,   8.09017E-03,       1.35000,NA,NA,"",  10.00000E-03,   867.362E-21,       1.35000,  -27.3049E-15,   200.211E-12
C:/ALETube/PressureUpdate/LargeStep/DeformErode/JobErode.odb,Step-1,Increment      2: Step Time =,    20.00,"TUBE-1",         17717,   7.07107E-03,   7.07107E-03,       1.35000,NA,NA,"",  10.00000E-03,            0.,       1.35000,   2.67022E-12,   242.781E-12
C:/ALETube/PressureUpdate/LargeStep/DeformErode/JobErode.odb,Step-1,Increment      2: Step Time =,    20.00,"TUBE-1",         17915,   5.87785E-03,   8.09017E-03,       1.36250,NA,NA,"",  10.00000E-03,   867.362E-21,       1.36250,  -27.3049E-15,   205.908E-12
C:/ALETube/PressureUpdate/LargeStep/DeformErode/JobErode.odb,Step-1,Increment      2: Step Time =,    20.00,"TUBE-1",         17881,   7.07107E-03,   7.07107E-03,       1.36250,NA,NA,"",  10.00000E-03,            0.,       1.36250,   2.67021E-12,   203.235E-12
C:/ALETube/PressureUpdate/LargeStep/DeformErode/JobErode.odb,Step-1,Increment      2: Step Time =,    20.00,"TUBE-1",         18079,   5.87785E-03,   8.09017E-03,         1.375,NA,NA,"",  10.00000E-03,   867.362E-21,         1.375,  -27.3050E-15,   186.045E-12
C:/ALETube/PressureUpdate/LargeStep/DeformErode/JobErode.odb,Step-1,Increment      2: Step Time =,    20.00,"TUBE-1",         18045,   7.07107E-03,   7.07107E-03,         1.375,NA,NA,"",  10.00000E-03,            0.,         1.375,   2.67019E-12,   250.192E-12
C:/ALETube/PressureUpdate/LargeStep/DeformErode/JobErode.odb,Step-1,Increment      2: Step Time =,    20.00,"TUBE-1",         18209,   7.07107E-03,   7.07107E-03,       1.38750,NA,NA,"",  10.00000E-03,            0.,       1.38750,   2.67021E-12,   203.235E-12
C:/ALETube/PressureUpdate/LargeStep/DeformErode/JobErode.odb,Step-1,Increment      2: Step Time =,    20.00,"TUBE-1",         18243,   5.87785E-03,   8.09017E-03,       1.38750,NA,NA,"",  10.00000E-03,   867.362E-21,       1.38750,  -27.3049E-15,   205.908E-12
C:/ALETube/PressureUpdate/LargeStep/DeformErode/JobErode.odb,Step-1,Increment      2: Step Time =,    20.00,"TUBE-1",         18407,   5.87785E-03,   8.09017E-03,       1.40000,NA,NA,"",  10.00000E-03,   867.362E-21,       1.40000,  -27.3049E-15,   200.211E-12
C:/ALETube/PressureUpdate/LargeStep/DeformErode/JobErode.odb,Step-1,Increment      2: Step Time =,    20.00,"TUBE-1",         18373,   7.07107E-03,   7.07107E-03,       1.40000,NA,NA,"",  10.00000E-03,            0.,       1.40000,   2.67022E-12,   242.781E-12
C:/ALETube/PressureUpdate/LargeStep/DeformErode/JobErode.odb,Step-1,Increment      2: Step Time =,    20.00,"TUBE-1",         18571,   5.87785E-03,   8.09017E-03,       1.41250,NA,NA,"",  10.00000E-03,   867.362E-21,       1.41250,  -27.3049E-15,   200.211E-12
C:/ALETube/PressureUpdate/LargeStep/DeformErode/JobErode.odb,Step-1,Increment      2: Step Time =,    20.00,"TUBE-1",         18537,   7.07107E-03,   7.07107E-03,       1.41250,NA,NA,"",  10.00000E-03,            0.,       1.41250,   2.67022E-12,   242.781E-12
C:/ALETube/PressureUpdate/LargeStep/DeformErode/JobErode.odb,Step-1,Increment      2: Step Time =,    20.00,"TUBE-1",         18735,   5.87785E-03,   8.09017E-03,       1.42500,NA,NA,"",  10.00000E-03,   867.362E-21,       1.42500,  -27.3049E-15,   205.908E-12
C:/ALETube/PressureUpdate/LargeStep/DeformErode/JobErode.odb,Step-1,Increment      2: Step Time =,    20.00,"TUBE-1",         18701,   7.07107E-03,   7.07107E-03,       1.42500,NA,NA,"",  10.00000E-03,            0.,       1.42500,   2.67021E-12,   203.235E-12
C:/ALETube/PressureUpdate/LargeStep/DeformErode/JobErode.odb,Step-1,Increment      2: Step Time =,    20.00,"TUBE-1",         18899,   5.87785E-03,   8.09017E-03,        1.4375,NA,NA,"",  10.00000E-03,   867.362E-21,        1.4375,  -27.3050E-15,   186.045E-12
C:/ALETube/PressureUpdate/LargeStep/DeformErode/JobErode.odb,Step-1,Increment      2: Step Time =,    20.00,"TUBE-1",         18865,   7.07107E-03,   7.07107E-03,        1.4375,NA,NA,"",  10.00000E-03,            0.,        1.4375,   2.67019E-12,   250.192E-12
C:/ALETube/PressureUpdate/LargeStep/DeformErode/JobErode.odb,Step-1,Increment      2: Step Time =,    20.00,"TUBE-1",         19029,   7.07107E-03,   7.07107E-03,       1.45000,NA,NA,"",  10.00000E-03,            0.,       1.45000,   2.67021E-12,   203.235E-12
C:/ALETube/PressureUpdate/LargeStep/DeformErode/JobErode.odb,Step-1,Increment      2: Step Time =,    20.00,"TUBE-1",         19063,   5.87785E-03,   8.09017E-03,       1.45000,NA,NA,"",  10.00000E-03,   867.362E-21,       1.45000,  -27.3049E-15,   205.908E-12
C:/ALETube/PressureUpdate/LargeStep/DeformErode/JobErode.odb,Step-1,Increment      2: Step Time =,    20.00,"TUBE-1",         19227,   5.87785E-03,   8.09017E-03,       1.46250,NA,NA,"",  10.00000E-03,   867.362E-21,       1.46250,  -27.3049E-15,   200.211E-12
C:/ALETube/PressureUpdate/LargeStep/DeformErode/JobErode.odb,Step-1,Increment      2: Step Time =,    20.00,"TUBE-1",         19193,   7.07107E-03,   7.07107E-03,       1.46250,NA,NA,"",  10.00000E-03,            0.,       1.46250,   2.67022E-12,   242.781E-12
C:/ALETube/PressureUpdate/LargeStep/DeformErode/JobErode.odb,Step-1,Increment      2: Step Time =,    20.00,"TUBE-1",         19391,   5.87785E-03,   8.09017E-03,       1.47500,NA,NA,"",  10.00000E-03,   867.362E-21,       1.47500,  -27.3049E-15,   200.211E-12
C:/ALETube/PressureUpdate/LargeStep/DeformErode/JobErode.odb,Step-1,Increment      2: Step Time =,    20.00,"TUBE-1",         19357,   7.07107E-03,   7.07107E-03,       1.47500,NA,NA,"",  10.00000E-03,            0.,       1.47500,   2.67022E-12,   242.781E-12
C:/ALETube/PressureUpdate/LargeStep/DeformErode/JobErode.odb,Step-1,Increment      2: Step Time =,    20.00,"TUBE-1",         19555,   5.87785E-03,   8.09017E-03,       1.48750,NA,NA,"",  10.00000E-03,   867.362E-21,       1.48750,  -27.3049E-15,   205.908E-12
C:/ALETube/PressureUpdate/LargeStep/DeformErode/JobErode.odb,Step-1,Increment      2: Step Time =,    20.00,"TUBE-1",         19521,   7.07107E-03,   7.07107E-03,       1.48750,NA,NA,"",  10.00000E-03,            0.,       1.48750,   2.67021E-12,   203.235E-12
C:/ALETube/PressureUpdate/LargeStep/DeformErode/JobErode.odb,Step-1,Increment      2: Step Time =,    20.00,"TUBE-1",         19719,   5.87785E-03,   8.09017E-03,           1.5,NA,NA,"",  10.00000E-03,   867.362E-21,           1.5,  -27.3050E-15,   186.045E-12
C:/ALETube/PressureUpdate/LargeStep/DeformErode/JobErode.odb,Step-1,Increment      2: Step Time =,    20.00,"TUBE-1",         19685,   7.07107E-03,   7.07107E-03,           1.5,NA,NA,"",  10.00000E-03,            0.,           1.5,   2.67019E-12,   250.192E-12
C:/ALETube/PressureUpdate/LargeStep/DeformErode/JobErode.odb,Step-1,Increment      2: Step Time =,    20.00,"TUBE-1",         19849,   7.07107E-03,   7.07107E-03,       1.51250,NA,NA,"",  10.00000E-03,            0.,       1.51250,   2.67021E-12,   203.235E-12
C:/ALETube/PressureUpdate/LargeStep/DeformErode/JobErode.odb,Step-1,Increment      2: Step Time =,    20.00,"TUBE-1",         19883,   5.87785E-03,   8.09017E-03,       1.51250,NA,NA,"",  10.00000E-03,   867.362E-21,       1.51250,  -27.3049E-15,   205.908E-12
C:/ALETube/PressureUpdate/LargeStep/DeformErode/JobErode.odb,Step-1,Increment      2: Step Time =,    20.00,"TUBE-1",         20047,   5.87785E-03,   8.09017E-03,       1.52500,NA,NA,"",  10.00000E-03,   867.362E-21,       1.52500,  -27.3049E-15,   200.211E-12
C:/ALETube/PressureUpdate/LargeStep/DeformErode/JobErode.odb,Step-1,Increment      2: Step Time =,    20.00,"TUBE-1",         20013,   7.07107E-03,   7.07107E-03,       1.52500,NA,NA,"",  10.00000E-03,            0.,       1.52500,   2.67022E-12,   242.781E-12
C:/ALETube/PressureUpdate/LargeStep/DeformErode/JobErode.odb,Step-1,Increment      2: Step Time =,    20.00,"TUBE-1",         20211,   5.87785E-03,   8.09017E-03,       1.53750,NA,NA,"",  10.00000E-03,   867.362E-21,       1.53750,  -27.3049E-15,   200.211E-12
C:/ALETube/PressureUpdate/LargeStep/DeformErode/JobErode.odb,Step-1,Increment      2: Step Time =,    20.00,"TUBE-1",         20177,   7.07107E-03,   7.07107E-03,       1.53750,NA,NA,"",  10.00000E-03,            0.,       1.53750,   2.67022E-12,   242.781E-12
C:/ALETube/PressureUpdate/LargeStep/DeformErode/JobErode.odb,Step-1,Increment      2: Step Time =,    20.00,"TUBE-1",         20375,   5.87785E-03,   8.09017E-03,       1.55000,NA,NA,"",  10.00000E-03,   867.362E-21,       1.55000,  -27.3049E-15,   205.908E-12
C:/ALETube/PressureUpdate/LargeStep/DeformErode/JobErode.odb,Step-1,Increment      2: Step Time =,    20.00,"TUBE-1",         20341,   7.07107E-03,   7.07107E-03,       1.55000,NA,NA,"",  10.00000E-03,            0.,       1.55000,   2.67021E-12,   203.235E-12
C:/ALETube/PressureUpdate/LargeStep/DeformErode/JobErode.odb,Step-1,Increment      2: Step Time =,    20.00,"TUBE-1",         20539,   5.87785E-03,   8.09017E-03,        1.5625,NA,NA,"",  10.00000E-03,   867.362E-21,        1.5625,  -27.3050E-15,   186.045E-12
C:/ALETube/PressureUpdate/LargeStep/DeformErode/JobErode.odb,Step-1,Increment      2: Step Time =,    20.00,"TUBE-1",         20505,   7.07107E-03,   7.07107E-03,        1.5625,NA,NA,"",  10.00000E-03,            0.,        1.5625,   2.67019E-12,   250.192E-12
C:/ALETube/PressureUpdate/LargeStep/DeformErode/JobErode.odb,Step-1,Increment      2: Step Time =,    20.00,"TUBE-1",         20669,   7.07107E-03,   7.07107E-03,       1.57500,NA,NA,"",  10.00000E-03,            0.,       1.57500,   2.67021E-12,   203.235E-12
C:/ALETube/PressureUpdate/LargeStep/DeformErode/JobErode.odb,Step-1,Increment      2: Step Time =,    20.00,"TUBE-1",         20703,   5.87785E-03,   8.09017E-03,       1.57500,NA,NA,"",  10.00000E-03,   867.362E-21,       1.57500,  -27.3049E-15,   205.908E-12
C:/ALETube/PressureUpdate/LargeStep/DeformErode/JobErode.odb,Step-1,Increment      2: Step Time =,    20.00,"TUBE-1",         20867,   5.87785E-03,   8.09017E-03,       1.58750,NA,NA,"",  10.00000E-03,   867.362E-21,       1.58750,  -27.3049E-15,   200.211E-12
C:/ALETube/PressureUpdate/LargeStep/DeformErode/JobErode.odb,Step-1,Increment      2: Step Time =,    20.00,"TUBE-1",         20833,   7.07107E-03,   7.07107E-03,       1.58750,NA,NA,"",  10.00000E-03,            0.,       1.58750,   2.67022E-12,   242.781E-12
C:/ALETube/PressureUpdate/LargeStep/DeformErode/JobErode.odb,Step-1,Increment      2: Step Time =,    20.00,"TUBE-1",         21031,   5.87785E-03,   8.09017E-03,       1.60000,NA,NA,"",  10.00000E-03,   867.362E-21,       1.60000,  -27.3049E-15,   200.211E-12
C:/ALETube/PressureUpdate/LargeStep/DeformErode/JobErode.odb,Step-1,Increment      2: Step Time =,    20.00,"TUBE-1",         20997,   7.07107E-03,   7.07107E-03,       1.60000,NA,NA,"",  10.00000E-03,            0.,       1.60000,   2.67022E-12,   242.781E-12
C:/ALETube/PressureUpdate/LargeStep/DeformErode/JobErode.odb,Step-1,Increment      2: Step Time =,    20.00,"TUBE-1",         21195,   5.87785E-03,   8.09017E-03,       1.61250,NA,NA,"",  10.00000E-03,   867.362E-21,       1.61250,  -27.3049E-15,   205.908E-12
C:/ALETube/PressureUpdate/LargeStep/DeformErode/JobErode.odb,Step-1,Increment      2: Step Time =,    20.00,"TUBE-1",         21161,   7.07107E-03,   7.07107E-03,       1.61250,NA,NA,"",  10.00000E-03,            0.,       1.61250,   2.67021E-12,   203.235E-12
C:/ALETube/PressureUpdate/LargeStep/DeformErode/JobErode.odb,Step-1,Increment      2: Step Time =,    20.00,"TUBE-1",         21359,   5.87785E-03,   8.09017E-03,         1.625,NA,NA,"",  10.00000E-03,   867.362E-21,         1.625,  -27.3050E-15,   186.045E-12
C:/ALETube/PressureUpdate/LargeStep/DeformErode/JobErode.odb,Step-1,Increment      2: Step Time =,    20.00,"TUBE-1",         21325,   7.07107E-03,   7.07107E-03,         1.625,NA,NA,"",  10.00000E-03,            0.,         1.625,   2.67019E-12,   250.192E-12
C:/ALETube/PressureUpdate/LargeStep/DeformErode/JobErode.odb,Step-1,Increment      2: Step Time =,    20.00,"TUBE-1",         21489,   7.07107E-03,   7.07107E-03,       1.63750,NA,NA,"",  10.00000E-03,            0.,       1.63750,   2.67021E-12,   203.235E-12
C:/ALETube/PressureUpdate/LargeStep/DeformErode/JobErode.odb,Step-1,Increment      2: Step Time =,    20.00,"TUBE-1",         21523,   5.87785E-03,   8.09017E-03,       1.63750,NA,NA,"",  10.00000E-03,   867.362E-21,       1.63750,  -27.3049E-15,   205.908E-12
C:/ALETube/PressureUpdate/LargeStep/DeformErode/JobErode.odb,Step-1,Increment      2: Step Time =,    20.00,"TUBE-1",         21687,   5.87785E-03,   8.09017E-03,       1.65000,NA,NA,"",  10.00000E-03,   867.362E-21,       1.65000,  -27.3049E-15,   200.211E-12
C:/ALETube/PressureUpdate/LargeStep/DeformErode/JobErode.odb,Step-1,Increment      2: Step Time =,    20.00,"TUBE-1",         21653,   7.07107E-03,   7.07107E-03,       1.65000,NA,NA,"",  10.00000E-03,            0.,       1.65000,   2.67022E-12,   242.781E-12
C:/ALETube/PressureUpdate/LargeStep/DeformErode/JobErode.odb,Step-1,Increment      2: Step Time =,    20.00,"TUBE-1",         21851,   5.87785E-03,   8.09017E-03,       1.66250,NA,NA,"",  10.00000E-03,   867.362E-21,       1.66250,  -27.3049E-15,   200.211E-12
C:/ALETube/PressureUpdate/LargeStep/DeformErode/JobErode.odb,Step-1,Increment      2: Step Time =,    20.00,"TUBE-1",         21817,   7.07107E-03,   7.07107E-03,       1.66250,NA,NA,"",  10.00000E-03,            0.,       1.66250,   2.67022E-12,   242.781E-12
C:/ALETube/PressureUpdate/LargeStep/DeformErode/JobErode.odb,Step-1,Increment      2: Step Time =,    20.00,"TUBE-1",         22015,   5.87785E-03,   8.09017E-03,       1.67500,NA,NA,"",  10.00000E-03,   867.362E-21,       1.67500,  -27.3049E-15,   205.908E-12
C:/ALETube/PressureUpdate/LargeStep/DeformErode/JobErode.odb,Step-1,Increment      2: Step Time =,    20.00,"TUBE-1",         21981,   7.07107E-03,   7.07107E-03,       1.67500,NA,NA,"",  10.00000E-03,            0.,       1.67500,   2.67021E-12,   203.235E-12
C:/ALETube/PressureUpdate/LargeStep/DeformErode/JobErode.odb,Step-1,Increment      2: Step Time =,    20.00,"TUBE-1",         22179,   5.87785E-03,   8.09017E-03,        1.6875,NA,NA,"",  10.00000E-03,   867.362E-21,        1.6875,  -27.3050E-15,   186.045E-12
C:/ALETube/PressureUpdate/LargeStep/DeformErode/JobErode.odb,Step-1,Increment      2: Step Time =,    20.00,"TUBE-1",         22145,   7.07107E-03,   7.07107E-03,        1.6875,NA,NA,"",  10.00000E-03,            0.,        1.6875,   2.67019E-12,   250.192E-12
C:/ALETube/PressureUpdate/LargeStep/DeformErode/JobErode.odb,Step-1,Increment      2: Step Time =,    20.00,"TUBE-1",         22309,   7.07107E-03,   7.07107E-03,       1.70000,NA,NA,"",  10.00000E-03,            0.,       1.70000,   2.67021E-12,   203.235E-12
C:/ALETube/PressureUpdate/LargeStep/DeformErode/JobErode.odb,Step-1,Increment      2: Step Time =,    20.00,"TUBE-1",         22343,   5.87785E-03,   8.09017E-03,       1.70000,NA,NA,"",  10.00000E-03,   867.362E-21,       1.70000,  -27.3049E-15,   205.908E-12
C:/ALETube/PressureUpdate/LargeStep/DeformErode/JobErode.odb,Step-1,Increment      2: Step Time =,    20.00,"TUBE-1",         22507,   5.87785E-03,   8.09017E-03,       1.71250,NA,NA,"",  10.00000E-03,   867.362E-21,       1.71250,  -27.3049E-15,   200.211E-12
C:/ALETube/PressureUpdate/LargeStep/DeformErode/JobErode.odb,Step-1,Increment      2: Step Time =,    20.00,"TUBE-1",         22473,   7.07107E-03,   7.07107E-03,       1.71250,NA,NA,"",  10.00000E-03,            0.,       1.71250,   2.67022E-12,   242.781E-12
C:/ALETube/PressureUpdate/LargeStep/DeformErode/JobErode.odb,Step-1,Increment      2: Step Time =,    20.00,"TUBE-1",         22671,   5.87785E-03,   8.09017E-03,       1.72500,NA,NA,"",  10.00000E-03,   867.362E-21,       1.72500,  -27.3049E-15,   200.211E-12
C:/ALETube/PressureUpdate/LargeStep/DeformErode/JobErode.odb,Step-1,Increment      2: Step Time =,    20.00,"TUBE-1",         22637,   7.07107E-03,   7.07107E-03,       1.72500,NA,NA,"",  10.00000E-03,            0.,       1.72500,   2.67022E-12,   242.781E-12
C:/ALETube/PressureUpdate/LargeStep/DeformErode/JobErode.odb,Step-1,Increment      2: Step Time =,    20.00,"TUBE-1",         22835,   5.87785E-03,   8.09017E-03,       1.73750,NA,NA,"",  10.00000E-03,   867.362E-21,       1.73750,  -27.3049E-15,   205.908E-12
C:/ALETube/PressureUpdate/LargeStep/DeformErode/JobErode.odb,Step-1,Increment      2: Step Time =,    20.00,"TUBE-1",         22801,   7.07107E-03,   7.07107E-03,       1.73750,NA,NA,"",  10.00000E-03,            0.,       1.73750,   2.67021E-12,   203.235E-12
C:/ALETube/PressureUpdate/LargeStep/DeformErode/JobErode.odb,Step-1,Increment      2: Step Time =,    20.00,"TUBE-1",         22999,   5.87785E-03,   8.09017E-03,          1.75,NA,NA,"",  10.00000E-03,   867.362E-21,          1.75,  -27.3050E-15,   186.045E-12
C:/ALETube/PressureUpdate/LargeStep/DeformErode/JobErode.odb,Step-1,Increment      2: Step Time =,    20.00,"TUBE-1",         22965,   7.07107E-03,   7.07107E-03,          1.75,NA,NA,"",  10.00000E-03,            0.,          1.75,   2.67019E-12,   250.192E-12
C:/ALETube/PressureUpdate/LargeStep/DeformErode/JobErode.odb,Step-1,Increment      2: Step Time =,    20.00,"TUBE-1",         23129,   7.07107E-03,   7.07107E-03,       1.76250,NA,NA,"",  10.00000E-03,            0.,       1.76250,   2.67021E-12,   203.235E-12
C:/ALETube/PressureUpdate/LargeStep/DeformErode/JobErode.odb,Step-1,Increment      2: Step Time =,    20.00,"TUBE-1",         23163,   5.87785E-03,   8.09017E-03,       1.76250,NA,NA,"",  10.00000E-03,   867.362E-21,       1.76250,  -27.3049E-15,   205.908E-12
C:/ALETube/PressureUpdate/LargeStep/DeformErode/JobErode.odb,Step-1,Increment      2: Step Time =,    20.00,"TUBE-1",         23327,   5.87785E-03,   8.09017E-03,       1.77500,NA,NA,"",  10.00000E-03,   867.362E-21,       1.77500,  -27.3049E-15,   200.211E-12
C:/ALETube/PressureUpdate/LargeStep/DeformErode/JobErode.odb,Step-1,Increment      2: Step Time =,    20.00,"TUBE-1",         23293,   7.07107E-03,   7.07107E-03,       1.77500,NA,NA,"",  10.00000E-03,            0.,       1.77500,   2.67022E-12,   242.781E-12
C:/ALETube/PressureUpdate/LargeStep/DeformErode/JobErode.odb,Step-1,Increment      2: Step Time =,    20.00,"TUBE-1",         23491,   5.87785E-03,   8.09017E-03,       1.78750,NA,NA,"",  10.00000E-03,   867.362E-21,       1.78750,  -27.3049E-15,   200.212E-12
C:/ALETube/PressureUpdate/LargeStep/DeformErode/JobErode.odb,Step-1,Increment      2: Step Time =,    20.00,"TUBE-1",         23457,   7.07107E-03,   7.07107E-03,       1.78750,NA,NA,"",  10.00000E-03,            0.,       1.78750,   2.67022E-12,   242.781E-12
C:/ALETube/PressureUpdate/LargeStep/DeformErode/JobErode.odb,Step-1,Increment      2: Step Time =,    20.00,"TUBE-1",         23655,   5.87785E-03,   8.09017E-03,       1.80000,NA,NA,"",  10.00000E-03,   867.362E-21,       1.80000,  -27.3049E-15,   205.908E-12
C:/ALETube/PressureUpdate/LargeStep/DeformErode/JobErode.odb,Step-1,Increment      2: Step Time =,    20.00,"TUBE-1",         23621,   7.07107E-03,   7.07107E-03,       1.80000,NA,NA,"",  10.00000E-03,            0.,       1.80000,   2.67021E-12,   203.235E-12
C:/ALETube/PressureUpdate/LargeStep/DeformErode/JobErode.odb,Step-1,Increment      2: Step Time =,    20.00,"TUBE-1",         23819,   5.87785E-03,   8.09017E-03,        1.8125,NA,NA,"",  10.00000E-03,   867.362E-21,        1.8125,  -27.3050E-15,   186.045E-12
C:/ALETube/PressureUpdate/LargeStep/DeformErode/JobErode.odb,Step-1,Increment      2: Step Time =,    20.00,"TUBE-1",         23785,   7.07107E-03,   7.07107E-03,        1.8125,NA,NA,"",  10.00000E-03,            0.,        1.8125,   2.67019E-12,   250.192E-12
C:/ALETube/PressureUpdate/LargeStep/DeformErode/JobErode.odb,Step-1,Increment      2: Step Time =,    20.00,"TUBE-1",         23949,   7.07107E-03,   7.07107E-03,       1.82500,NA,NA,"",  10.00000E-03,            0.,       1.82500,   2.67021E-12,   203.235E-12
C:/ALETube/PressureUpdate/LargeStep/DeformErode/JobErode.odb,Step-1,Increment      2: Step Time =,    20.00,"TUBE-1",         23983,   5.87785E-03,   8.09017E-03,       1.82500,NA,NA,"",  10.00000E-03,   867.362E-21,       1.82500,  -27.3049E-15,   205.907E-12
C:/ALETube/PressureUpdate/LargeStep/DeformErode/JobErode.odb,Step-1,Increment      2: Step Time =,    20.00,"TUBE-1",         24147,   5.87785E-03,   8.09017E-03,       1.83750,NA,NA,"",  10.00000E-03,   867.362E-21,       1.83750,  -27.3049E-15,   200.213E-12
C:/ALETube/PressureUpdate/LargeStep/DeformErode/JobErode.odb,Step-1,Increment      2: Step Time =,    20.00,"TUBE-1",         24113,   7.07107E-03,   7.07107E-03,       1.83750,NA,NA,"",  10.00000E-03,            0.,       1.83750,   2.67022E-12,   242.782E-12
C:/ALETube/PressureUpdate/LargeStep/DeformErode/JobErode.odb,Step-1,Increment      2: Step Time =,    20.00,"TUBE-1",         24311,   5.87785E-03,   8.09017E-03,       1.85000,NA,NA,"",  10.00000E-03,   867.362E-21,       1.85000,  -27.3049E-15,   200.207E-12
C:/ALETube/PressureUpdate/LargeStep/DeformErode/JobErode.odb,Step-1,Increment      2: Step Time =,    20.00,"TUBE-1",         24277,   7.07107E-03,   7.07107E-03,       1.85000,NA,NA,"",  10.00000E-03,            0.,       1.85000,   2.67022E-12,   242.781E-12
C:/ALETube/PressureUpdate/LargeStep/DeformErode/JobErode.odb,Step-1,Increment      2: Step Time =,    20.00,"TUBE-1",         24475,   5.87785E-03,   8.09017E-03,       1.86250,NA,NA,"",  10.00000E-03,   867.362E-21,       1.86250,  -27.3049E-15,   205.916E-12
C:/ALETube/PressureUpdate/LargeStep/DeformErode/JobErode.odb,Step-1,Increment      2: Step Time =,    20.00,"TUBE-1",         24441,   7.07107E-03,   7.07107E-03,       1.86250,NA,NA,"",  10.00000E-03,            0.,       1.86250,   2.67021E-12,   203.233E-12
C:/ALETube/PressureUpdate/LargeStep/DeformErode/JobErode.odb,Step-1,Increment      2: Step Time =,    20.00,"TUBE-1",         24639,   5.87785E-03,   8.09017E-03,         1.875,NA,NA,"",  10.00000E-03,   867.362E-21,         1.875,  -27.3050E-15,   186.036E-12
C:/ALETube/PressureUpdate/LargeStep/DeformErode/JobErode.odb,Step-1,Increment      2: Step Time =,    20.00,"TUBE-1",         24605,   7.07107E-03,   7.07107E-03,         1.875,NA,NA,"",  10.00000E-03,            0.,         1.875,   2.67019E-12,   250.197E-12
C:/ALETube/PressureUpdate/LargeStep/DeformErode/JobErode.odb,Step-1,Increment      2: Step Time =,    20.00,"TUBE-1",         24769,   7.07107E-03,   7.07107E-03,       1.88750,NA,NA,"",  10.00000E-03,            0.,       1.88750,   2.67021E-12,   203.224E-12
C:/ALETube/PressureUpdate/LargeStep/DeformErode/JobErode.odb,Step-1,Increment      2: Step Time =,    20.00,"TUBE-1",         24803,   5.87785E-03,   8.09017E-03,       1.88750,NA,NA,"",  10.00000E-03,   867.362E-21,       1.88750,  -27.3049E-15,   205.949E-12
C:/ALETube/PressureUpdate/LargeStep/DeformErode/JobErode.odb,Step-1,Increment      2: Step Time =,    20.00,"TUBE-1",         24967,   5.87785E-03,   8.09017E-03,       1.90000,NA,NA,"",  10.00000E-03,   867.362E-21,       1.90000,  -27.3049E-15,   200.116E-12
C:/ALETube/PressureUpdate/LargeStep/DeformErode/JobErode.odb,Step-1,Increment      2: Step Time =,    20.00,"TUBE-1",         24933,   7.07107E-03,   7.07107E-03,       1.90000,NA,NA,"",  10.00000E-03,            0.,       1.90000,   2.67022E-12,   242.768E-12
C:/ALETube/PressureUpdate/LargeStep/DeformErode/JobErode.odb,Step-1,Increment      2: Step Time =,    20.00,"TUBE-1",         25131,   5.87785E-03,   8.09017E-03,       1.91250,NA,NA,"",  10.00000E-03,   867.362E-21,       1.91250,  -27.3049E-15,   200.420E-12
C:/ALETube/PressureUpdate/LargeStep/DeformErode/JobErode.odb,Step-1,Increment      2: Step Time =,    20.00,"TUBE-1",         25097,   7.07107E-03,   7.07107E-03,       1.91250,NA,NA,"",  10.00000E-03,            0.,       1.91250,   2.67022E-12,   242.810E-12
C:/ALETube/PressureUpdate/LargeStep/DeformErode/JobErode.odb,Step-1,Increment      2: Step Time =,    20.00,"TUBE-1",         25295,   5.87785E-03,   8.09017E-03,       1.92500,NA,NA,"",  10.00000E-03,   867.362E-21,       1.92500,  -27.3049E-15,   205.479E-12
C:/ALETube/PressureUpdate/LargeStep/DeformErode/JobErode.odb,Step-1,Increment      2: Step Time =,    20.00,"TUBE-1",         25261,   7.07107E-03,   7.07107E-03,       1.92500,NA,NA,"",  10.00000E-03,            0.,       1.92500,   2.67021E-12,   203.351E-12
C:/ALETube/PressureUpdate/LargeStep/DeformErode/JobErode.odb,Step-1,Increment      2: Step Time =,    20.00,"TUBE-1",         25459,   5.87785E-03,   8.09017E-03,        1.9375,NA,NA,"",  10.00000E-03,   867.362E-21,        1.9375,  -27.3050E-15,   186.521E-12
C:/ALETube/PressureUpdate/LargeStep/DeformErode/JobErode.odb,Step-1,Increment      2: Step Time =,    20.00,"TUBE-1",         25425,   7.07107E-03,   7.07107E-03,        1.9375,NA,NA,"",  10.00000E-03,            0.,        1.9375,   2.67019E-12,   249.984E-12
C:/ALETube/PressureUpdate/LargeStep/DeformErode/JobErode.odb,Step-1,Increment      2: Step Time =,    20.00,"TUBE-1",         25589,   7.07107E-03,   7.07107E-03,       1.95000,NA,NA,"",  10.00000E-03,            0.,       1.95000,   2.67021E-12,   203.793E-12
C:/ALETube/PressureUpdate/LargeStep/DeformErode/JobErode.odb,Step-1,Increment      2: Step Time =,    20.00,"TUBE-1",         25623,   5.87785E-03,   8.09017E-03,       1.95000,NA,NA,"",  10.00000E-03,   867.362E-21,       1.95000,  -27.3049E-15,   204.042E-12
C:/ALETube/PressureUpdate/LargeStep/DeformErode/JobErode.odb,Step-1,Increment      2: Step Time =,    20.00,"TUBE-1",         25787,   5.87785E-03,   8.09017E-03,       1.96250,NA,NA,"",  10.00000E-03,   867.362E-21,       1.96250,  -27.3050E-15,   204.184E-12
C:/ALETube/PressureUpdate/LargeStep/DeformErode/JobErode.odb,Step-1,Increment      2: Step Time =,    20.00,"TUBE-1",         25753,   7.07107E-03,   7.07107E-03,       1.96250,NA,NA,"",  10.00000E-03,            0.,       1.96250,   2.67022E-12,   243.309E-12
C:/ALETube/PressureUpdate/LargeStep/DeformErode/JobErode.odb,Step-1,Increment      2: Step Time =,    20.00,"TUBE-1",         25951,   5.87785E-03,   8.09017E-03,       1.97500,NA,NA,"",  10.00000E-03,   867.362E-21,       1.97500,  -27.3049E-15,   193.591E-12
C:/ALETube/PressureUpdate/LargeStep/DeformErode/JobErode.odb,Step-1,Increment      2: Step Time =,    20.00,"TUBE-1",         25917,   7.07107E-03,   7.07107E-03,       1.97500,NA,NA,"",  10.00000E-03,            0.,       1.97500,   2.67022E-12,   241.311E-12
C:/ALETube/PressureUpdate/LargeStep/DeformErode/JobErode.odb,Step-1,Increment      2: Step Time =,    20.00,"TUBE-1",         26115,   5.87785E-03,   8.09017E-03,       1.98750,NA,NA,"",  10.00000E-03,   867.362E-21,       1.98750,  -27.3050E-15,   215.281E-12
C:/ALETube/PressureUpdate/LargeStep/DeformErode/JobErode.odb,Step-1,Increment      2: Step Time =,    20.00,"TUBE-1",         26081,   7.07107E-03,   7.07107E-03,       1.98750,NA,NA,"",  10.00000E-03,            0.,       1.98750,   2.67021E-12,   201.940E-12
C:/ALETube/PressureUpdate/LargeStep/DeformErode/JobErode.odb,Step-1,Increment      2: Step Time =,    20.00,"TUBE-1",         26279,   5.87785E-03,   8.09017E-03,            2.,NA,NA,"",  10.00000E-03,   867.362E-21,            2.,  -519.596E-15,   164.706E-12
C:/ALETube/PressureUpdate/LargeStep/DeformErode/JobErode.odb,Step-1,Increment      2: Step Time =,    20.00,"TUBE-1",         26245,   7.07107E-03,   7.07107E-03,            2.,NA,NA,"",  10.00000E-03,            0.,            2.,   75.2348E-12,   188.345E-12
C:/ALETube/PressureUpdate/LargeStep/DeformErode/JobErode.odb,Step-1,Increment      3: Step Time =,    30.00,"TUBE-1",            39,   5.87785E-03,   8.09017E-03,            0.,NA,NA,"",   9.99998E-03,            0.,   280.100E-06,  -19.5213E-09,       1.27865
C:/ALETube/PressureUpdate/LargeStep/DeformErode/JobErode.odb,Step-1,Increment      3: Step Time =,    30.00,"TUBE-1",             5,   7.07107E-03,   7.07107E-03,            0.,NA,NA,"",   9.99998E-03,            0.,   280.100E-06,  -19.3894E-09,       1.27945
C:/ALETube/PressureUpdate/LargeStep/DeformErode/JobErode.odb,Step-1,Increment      3: Step Time =,    30.00,"TUBE-1",           203,   5.87785E-03,   8.09017E-03,   12.5000E-03,NA,NA,"",   10.0001E-03,   867.362E-21,   12.7807E-03,   63.5867E-09,       6.29566
C:/ALETube/PressureUpdate/LargeStep/DeformErode/JobErode.odb,Step-1,Increment      3: Step Time =,    30.00,"TUBE-1",           169,   7.07107E-03,   7.07107E-03,   12.5000E-03,NA,NA,"",   10.0001E-03,            0.,   12.7801E-03,   63.5877E-09,       6.29838
C:/ALETube/PressureUpdate/LargeStep/DeformErode/JobErode.odb,Step-1,Increment      3: Step Time =,    30.00,"TUBE-1",           333,   7.07107E-03,   7.07107E-03,   25.0000E-03,NA,NA,"",   10.0001E-03,            0.,   25.2801E-03,   115.287E-09,       12.3108
C:/ALETube/PressureUpdate/LargeStep/DeformErode/JobErode.odb,Step-1,Increment      3: Step Time =,    30.00,"TUBE-1",           367,   5.87785E-03,   8.09017E-03,   25.0000E-03,NA,NA,"",   10.0001E-03,  -867.362E-21,   25.2801E-03,   115.287E-09,       12.3050
C:/ALETube/PressureUpdate/LargeStep/DeformErode/JobErode.odb,Step-1,Increment      3: Step Time =,    30.00,"TUBE-1",           531,   5.87785E-03,   8.09017E-03,   37.5000E-03,NA,NA,"",   10.0002E-03,            0.,   37.7800E-03,   174.194E-09,       18.2262
C:/ALETube/PressureUpdate/LargeStep/DeformErode/JobErode.odb,Step-1,Increment      3: Step Time =,    30.00,"TUBE-1",           497,   7.07107E-03,   7.07107E-03,   37.5000E-03,NA,NA,"",   10.0002E-03,            0.,   37.7800E-03,   174.191E-09,       18.2357
C:/ALETube/PressureUpdate/LargeStep/DeformErode/JobErode.odb,Step-1,Increment      3: Step Time =,    30.00,"TUBE-1",           695,   5.87785E-03,   8.09017E-03,   50.0000E-03,NA,NA,"",   10.0002E-03,            0.,   50.2799E-03,   232.031E-09,       24.4103
C:/ALETube/PressureUpdate/LargeStep/DeformErode/JobErode.odb,Step-1,Increment      3: Step Time =,    30.00,"TUBE-1",           661,   7.07107E-03,   7.07107E-03,   50.0000E-03,NA,NA,"",   10.0002E-03,            0.,   50.2799E-03,   232.027E-09,       24.4226
C:/ALETube/PressureUpdate/LargeStep/DeformErode/JobErode.odb,Step-1,Increment      3: Step Time =,    30.00,"TUBE-1",           825,   7.07107E-03,   7.07107E-03,      62.5E-03,NA,NA,"",   10.0003E-03,            0.,   62.7798E-03,   290.256E-09,       30.4809
C:/ALETube/PressureUpdate/LargeStep/DeformErode/JobErode.odb,Step-1,Increment      3: Step Time =,    30.00,"TUBE-1",           859,   5.87785E-03,   8.09017E-03,      62.5E-03,NA,NA,"",   10.0003E-03,  -867.362E-21,   62.7798E-03,   290.263E-09,       30.4653
C:/ALETube/PressureUpdate/LargeStep/DeformErode/JobErode.odb,Step-1,Increment      3: Step Time =,    30.00,"TUBE-1",          1023,   5.87785E-03,   8.09017E-03,   75.0000E-03,NA,NA,"",   10.0003E-03,  -867.362E-21,   75.2797E-03,   348.176E-09,       36.5729
C:/ALETube/PressureUpdate/LargeStep/DeformErode/JobErode.odb,Step-1,Increment      3: Step Time =,    30.00,"TUBE-1",           989,   7.07107E-03,   7.07107E-03,   75.0000E-03,NA,NA,"",   10.0003E-03,            0.,   75.2797E-03,   348.168E-09,       36.5916
C:/ALETube/PressureUpdate/LargeStep/DeformErode/JobErode.odb,Step-1,Increment      3: Step Time =,    30.00,"TUBE-1",          1187,   5.87785E-03,   8.09017E-03,   87.5000E-03,NA,NA,"",   10.0004E-03,   867.362E-21,   87.7796E-03,   406.288E-09,       42.6602
C:/ALETube/PressureUpdate/LargeStep/DeformErode/JobErode.odb,Step-1,Increment      3: Step Time =,    30.00,"TUBE-1",          1153,   7.07107E-03,   7.07107E-03,   87.5000E-03,NA,NA,"",   10.0004E-03,            0.,   87.7796E-03,   406.278E-09,       42.6820
C:/ALETube/PressureUpdate/LargeStep/DeformErode/JobErode.odb,Step-1,Increment      3: Step Time =,    30.00,"TUBE-1",          1351,   5.87785E-03,   8.09017E-03,   100.000E-03,NA,NA,"",   10.0005E-03,            0.,   100.279E-03,   464.311E-09,       48.7577
C:/ALETube/PressureUpdate/LargeStep/DeformErode/JobErode.odb,Step-1,Increment      3: Step Time =,    30.00,"TUBE-1",          1317,   7.07107E-03,   7.07107E-03,   100.000E-03,NA,NA,"",   10.0005E-03,            0.,   100.279E-03,   464.299E-09,       48.7827
C:/ALETube/PressureUpdate/LargeStep/DeformErode/JobErode.odb,Step-1,Increment      3: Step Time =,    30.00,"TUBE-1",          1515,   5.87785E-03,   8.09017E-03,   112.500E-03,NA,NA,"",   10.0005E-03,  -867.362E-21,   112.779E-03,   522.376E-09,       54.8508
C:/ALETube/PressureUpdate/LargeStep/DeformErode/JobErode.odb,Step-1,Increment      3: Step Time =,    30.00,"TUBE-1",          1481,   7.07107E-03,   7.07107E-03,   112.500E-03,NA,NA,"",   10.0005E-03,            0.,   112.779E-03,   522.362E-09,       54.8789
C:/ALETube/PressureUpdate/LargeStep/DeformErode/JobErode.odb,Step-1,Increment      3: Step Time =,    30.00,"TUBE-1",          1645,   7.07107E-03,   7.07107E-03,      125.E-03,NA,NA,"",   10.0006E-03,            0.,   125.279E-03,   580.412E-09,       60.9779
C:/ALETube/PressureUpdate/LargeStep/DeformErode/JobErode.odb,Step-1,Increment      3: Step Time =,    30.00,"TUBE-1",          1679,   5.87785E-03,   8.09017E-03,      125.E-03,NA,NA,"",   10.0006E-03,            0.,   125.279E-03,   580.427E-09,       60.9467
C:/ALETube/PressureUpdate/LargeStep/DeformErode/JobErode.odb,Step-1,Increment      3: Step Time =,    30.00,"TUBE-1",          1843,   5.87785E-03,   8.09017E-03,   137.500E-03,NA,NA,"",   10.0006E-03,            0.,   137.779E-03,   638.490E-09,       67.0418
C:/ALETube/PressureUpdate/LargeStep/DeformErode/JobErode.odb,Step-1,Increment      3: Step Time =,    30.00,"TUBE-1",          1809,   7.07107E-03,   7.07107E-03,   137.500E-03,NA,NA,"",   10.0006E-03,            0.,   137.779E-03,   638.472E-09,       67.0761
C:/ALETube/PressureUpdate/LargeStep/DeformErode/JobErode.odb,Step-1,Increment      3: Step Time =,    30.00,"TUBE-1",          2007,   5.87785E-03,   8.09017E-03,   150.000E-03,NA,NA,"",   10.0007E-03,            0.,   150.279E-03,   696.551E-09,       73.1378
C:/ALETube/PressureUpdate/LargeStep/DeformErode/JobErode.odb,Step-1,Increment      3: Step Time =,    30.00,"TUBE-1",          1973,   7.07107E-03,   7.07107E-03,   150.000E-03,NA,NA,"",   10.0007E-03,            0.,   150.279E-03,   696.532E-09,       73.1752
C:/ALETube/PressureUpdate/LargeStep/DeformErode/JobErode.odb,Step-1,Increment      3: Step Time =,    30.00,"TUBE-1",          2171,   5.87785E-03,   8.09017E-03,   162.500E-03,NA,NA,"",   10.0008E-03,            0.,   162.778E-03,   754.618E-09,       79.2338
C:/ALETube/PressureUpdate/LargeStep/DeformErode/JobErode.odb,Step-1,Increment      3: Step Time =,    30.00,"TUBE-1",          2137,   7.07107E-03,   7.07107E-03,   162.500E-03,NA,NA,"",   10.0008E-03,            0.,   162.778E-03,   754.596E-09,       79.2744
C:/ALETube/PressureUpdate/LargeStep/DeformErode/JobErode.odb,Step-1,Increment      3: Step Time =,    30.00,"TUBE-1",          2335,   5.87785E-03,   8.09017E-03,   175.000E-03,NA,NA,"",   10.0008E-03,            0.,   175.278E-03,   812.687E-09,       85.3303
C:/ALETube/PressureUpdate/LargeStep/DeformErode/JobErode.odb,Step-1,Increment      3: Step Time =,    30.00,"TUBE-1",          2301,   7.07107E-03,   7.07107E-03,   175.000E-03,NA,NA,"",   10.0008E-03,            0.,   175.278E-03,   812.663E-09,       85.3740
C:/ALETube/PressureUpdate/LargeStep/DeformErode/JobErode.odb,Step-1,Increment      3: Step Time =,    30.00,"TUBE-1",          2465,   7.07107E-03,   7.07107E-03,     187.5E-03,NA,NA,"",   10.0009E-03,            0.,   187.778E-03,   870.734E-09,       91.4738
C:/ALETube/PressureUpdate/LargeStep/DeformErode/JobErode.odb,Step-1,Increment      3: Step Time =,    30.00,"TUBE-1",          2499,   5.87785E-03,   8.09017E-03,     187.5E-03,NA,NA,"",   10.0009E-03,            0.,   187.778E-03,   870.759E-09,       91.4270
C:/ALETube/PressureUpdate/LargeStep/DeformErode/JobErode.odb,Step-1,Increment      3: Step Time =,    30.00,"TUBE-1",          2663,   5.87785E-03,   8.09017E-03,   200.000E-03,NA,NA,"",   10.0009E-03,            0.,   200.277E-03,   928.834E-09,       97.5240
C:/ALETube/PressureUpdate/LargeStep/DeformErode/JobErode.odb,Step-1,Increment      3: Step Time =,    30.00,"TUBE-1",          2629,   7.07107E-03,   7.07107E-03,   200.000E-03,NA,NA,"",   10.0009E-03,            0.,   200.277E-03,   928.807E-09,       97.5739
C:/ALETube/PressureUpdate/LargeStep/DeformErode/JobErode.odb,Step-1,Increment      3: Step Time =,    30.00,"TUBE-1",          2827,   5.87785E-03,   8.09017E-03,   212.500E-03,NA,NA,"",   10.0010E-03,  -867.362E-21,   212.777E-03,   986.913E-09,       103.621
C:/ALETube/PressureUpdate/LargeStep/DeformErode/JobErode.odb,Step-1,Increment      3: Step Time =,    30.00,"TUBE-1",          2793,   7.07107E-03,   7.07107E-03,   212.500E-03,NA,NA,"",   10.0010E-03,            0.,   212.777E-03,   986.884E-09,       103.674
C:/ALETube/PressureUpdate/LargeStep/DeformErode/JobErode.odb,Step-1,Increment      3: Step Time =,    30.00,"TUBE-1",          2991,   5.87785E-03,   8.09017E-03,   225.000E-03,NA,NA,"",   10.0010E-03,  -867.362E-21,   225.277E-03,   1.04499E-06,       109.719
C:/ALETube/PressureUpdate/LargeStep/DeformErode/JobErode.odb,Step-1,Increment      3: Step Time =,    30.00,"TUBE-1",          2957,   7.07107E-03,   7.07107E-03,   225.000E-03,NA,NA,"",   10.0010E-03,            0.,   225.277E-03,   1.04496E-06,       109.775
C:/ALETube/PressureUpdate/LargeStep/DeformErode/JobErode.odb,Step-1,Increment      3: Step Time =,    30.00,"TUBE-1",          3155,   5.87785E-03,   8.09017E-03,   237.500E-03,NA,NA,"",   10.0011E-03,            0.,   237.776E-03,   1.10308E-06,       115.817
C:/ALETube/PressureUpdate/LargeStep/DeformErode/JobErode.odb,Step-1,Increment      3: Step Time =,    30.00,"TUBE-1",          3121,   7.07107E-03,   7.07107E-03,   237.500E-03,NA,NA,"",   10.0011E-03,            0.,   237.776E-03,   1.10305E-06,       115.876
C:/ALETube/PressureUpdate/LargeStep/DeformErode/JobErode.odb,Step-1,Increment      3: Step Time =,    30.00,"TUBE-1",          3285,   7.07107E-03,   7.07107E-03,      250.E-03,NA,NA,"",   10.0012E-03,            0.,   250.276E-03,   1.16113E-06,       121.977
C:/ALETube/PressureUpdate/LargeStep/DeformErode/JobErode.odb,Step-1,Increment      3: Step Time =,    30.00,"TUBE-1",          3319,   5.87785E-03,   8.09017E-03,      250.E-03,NA,NA,"",   10.0012E-03,            0.,   250.276E-03,   1.16117E-06,       121.915
C:/ALETube/PressureUpdate/LargeStep/DeformErode/JobErode.odb,Step-1,Increment      3: Step Time =,    30.00,"TUBE-1",          3483,   5.87785E-03,   8.09017E-03,   262.500E-03,NA,NA,"",   10.0012E-03,            0.,   262.775E-03,   1.21926E-06,       128.014
C:/ALETube/PressureUpdate/LargeStep/DeformErode/JobErode.odb,Step-1,Increment      3: Step Time =,    30.00,"TUBE-1",          3449,   7.07107E-03,   7.07107E-03,   262.500E-03,NA,NA,"",   10.0012E-03,            0.,   262.775E-03,   1.21922E-06,       128.079
C:/ALETube/PressureUpdate/LargeStep/DeformErode/JobErode.odb,Step-1,Increment      3: Step Time =,    30.00,"TUBE-1",          3647,   5.87785E-03,   8.09017E-03,   275.000E-03,NA,NA,"",   10.0013E-03,            0.,   275.275E-03,   1.27735E-06,       134.112
C:/ALETube/PressureUpdate/LargeStep/DeformErode/JobErode.odb,Step-1,Increment      3: Step Time =,    30.00,"TUBE-1",          3613,   7.07107E-03,   7.07107E-03,   275.000E-03,NA,NA,"",   10.0013E-03,            0.,   275.275E-03,   1.27731E-06,       134.181
C:/ALETube/PressureUpdate/LargeStep/DeformErode/JobErode.odb,Step-1,Increment      3: Step Time =,    30.00,"TUBE-1",          3811,   5.87785E-03,   8.09017E-03,   287.500E-03,NA,NA,"",   10.0013E-03,            0.,   287.774E-03,   1.33545E-06,       140.211
C:/ALETube/PressureUpdate/LargeStep/DeformErode/JobErode.odb,Step-1,Increment      3: Step Time =,    30.00,"TUBE-1",          3777,   7.07107E-03,   7.07107E-03,   287.500E-03,NA,NA,"",   10.0013E-03,            0.,   287.774E-03,   1.33541E-06,       140.283
C:/ALETube/PressureUpdate/LargeStep/DeformErode/JobErode.odb,Step-1,Increment      3: Step Time =,    30.00,"TUBE-1",          3975,   5.87785E-03,   8.09017E-03,   300.000E-03,NA,NA,"",   10.0014E-03,  -867.362E-21,   300.274E-03,   1.39355E-06,       146.311
C:/ALETube/PressureUpdate/LargeStep/DeformErode/JobErode.odb,Step-1,Increment      3: Step Time =,    30.00,"TUBE-1",          3941,   7.07107E-03,   7.07107E-03,   300.000E-03,NA,NA,"",   10.0014E-03,            0.,   300.274E-03,   1.39351E-06,       146.386
C:/ALETube/PressureUpdate/LargeStep/DeformErode/JobErode.odb,Step-1,Increment      3: Step Time =,    30.00,"TUBE-1",          4105,   7.07107E-03,   7.07107E-03,     312.5E-03,NA,NA,"",   10.0015E-03,            0.,   312.773E-03,   1.45161E-06,       152.488
C:/ALETube/PressureUpdate/LargeStep/DeformErode/JobErode.odb,Step-1,Increment      3: Step Time =,    30.00,"TUBE-1",          4139,   5.87785E-03,   8.09017E-03,     312.5E-03,NA,NA,"",   10.0015E-03,            0.,   312.773E-03,   1.45165E-06,       152.410
C:/ALETube/PressureUpdate/LargeStep/DeformErode/JobErode.odb,Step-1,Increment      3: Step Time =,    30.00,"TUBE-1",          4303,   5.87785E-03,   8.09017E-03,   325.000E-03,NA,NA,"",   10.0015E-03,  -867.362E-21,   325.273E-03,   1.50976E-06,       158.510
C:/ALETube/PressureUpdate/LargeStep/DeformErode/JobErode.odb,Step-1,Increment      3: Step Time =,    30.00,"TUBE-1",          4269,   7.07107E-03,   7.07107E-03,   325.000E-03,NA,NA,"",   10.0015E-03,            0.,   325.273E-03,   1.50971E-06,       158.591
C:/ALETube/PressureUpdate/LargeStep/DeformErode/JobErode.odb,Step-1,Increment      3: Step Time =,    30.00,"TUBE-1",          4467,   5.87785E-03,   8.09017E-03,   337.500E-03,NA,NA,"",   10.0016E-03,            0.,   337.772E-03,   1.56787E-06,       164.611
C:/ALETube/PressureUpdate/LargeStep/DeformErode/JobErode.odb,Step-1,Increment      3: Step Time =,    30.00,"TUBE-1",          4433,   7.07107E-03,   7.07107E-03,   337.500E-03,NA,NA,"",   10.0016E-03,            0.,   337.772E-03,   1.56782E-06,       164.695
C:/ALETube/PressureUpdate/LargeStep/DeformErode/JobErode.odb,Step-1,Increment      3: Step Time =,    30.00,"TUBE-1",          4631,   5.87785E-03,   8.09017E-03,   350.000E-03,NA,NA,"",   10.0016E-03,            0.,   350.272E-03,   1.62598E-06,       170.711
C:/ALETube/PressureUpdate/LargeStep/DeformErode/JobErode.odb,Step-1,Increment      3: Step Time =,    30.00,"TUBE-1",          4597,   7.07107E-03,   7.07107E-03,   350.000E-03,NA,NA,"",   10.0016E-03,            0.,   350.272E-03,   1.62593E-06,       170.798
C:/ALETube/PressureUpdate/LargeStep/DeformErode/JobErode.odb,Step-1,Increment      3: Step Time =,    30.00,"TUBE-1",          4795,   5.87785E-03,   8.09017E-03,   362.500E-03,NA,NA,"",   10.0017E-03,            0.,   362.771E-03,   1.68410E-06,       176.812
C:/ALETube/PressureUpdate/LargeStep/DeformErode/JobErode.odb,Step-1,Increment      3: Step Time =,    30.00,"TUBE-1",          4761,   7.07107E-03,   7.07107E-03,   362.500E-03,NA,NA,"",   10.0017E-03,            0.,   362.771E-03,   1.68405E-06,       176.902
C:/ALETube/PressureUpdate/LargeStep/DeformErode/JobErode.odb,Step-1,Increment      3: Step Time =,    30.00,"TUBE-1",          4925,   7.07107E-03,   7.07107E-03,      375.E-03,NA,NA,"",   10.0017E-03,            0.,   375.270E-03,   1.74216E-06,       183.006
C:/ALETube/PressureUpdate/LargeStep/DeformErode/JobErode.odb,Step-1,Increment      3: Step Time =,    30.00,"TUBE-1",          4959,   5.87785E-03,   8.09017E-03,      375.E-03,NA,NA,"",   10.0017E-03,            0.,   375.270E-03,   1.74222E-06,       182.913
C:/ALETube/PressureUpdate/LargeStep/DeformErode/JobErode.odb,Step-1,Increment      3: Step Time =,    30.00,"TUBE-1",          5123,   5.87785E-03,   8.09017E-03,   387.500E-03,NA,NA,"",   10.0018E-03,            0.,   387.770E-03,   1.80034E-06,       189.014
C:/ALETube/PressureUpdate/LargeStep/DeformErode/JobErode.odb,Step-1,Increment      3: Step Time =,    30.00,"TUBE-1",          5089,   7.07107E-03,   7.07107E-03,   387.500E-03,NA,NA,"",   10.0018E-03,            0.,   387.770E-03,   1.80028E-06,       189.111
C:/ALETube/PressureUpdate/LargeStep/DeformErode/JobErode.odb,Step-1,Increment      3: Step Time =,    30.00,"TUBE-1",          5287,   5.87785E-03,   8.09017E-03,   400.000E-03,NA,NA,"",   10.0019E-03,            0.,   400.269E-03,   1.85847E-06,       195.116
C:/ALETube/PressureUpdate/LargeStep/DeformErode/JobErode.odb,Step-1,Increment      3: Step Time =,    30.00,"TUBE-1",          5253,   7.07107E-03,   7.07107E-03,   400.000E-03,NA,NA,"",   10.0019E-03,            0.,   400.269E-03,   1.85841E-06,       195.216
C:/ALETube/PressureUpdate/LargeStep/DeformErode/JobErode.odb,Step-1,Increment      3: Step Time =,    30.00,"TUBE-1",          5451,   5.87785E-03,   8.09017E-03,   412.500E-03,NA,NA,"",   10.0019E-03,            0.,   412.768E-03,   1.91659E-06,       201.218
C:/ALETube/PressureUpdate/LargeStep/DeformErode/JobErode.odb,Step-1,Increment      3: Step Time =,    30.00,"TUBE-1",          5417,   7.07107E-03,   7.07107E-03,   412.500E-03,NA,NA,"",   10.0019E-03,            0.,   412.768E-03,   1.91653E-06,       201.321
C:/ALETube/PressureUpdate/LargeStep/DeformErode/JobErode.odb,Step-1,Increment      3: Step Time =,    30.00,"TUBE-1",          5615,   5.87785E-03,   8.09017E-03,   425.000E-03,NA,NA,"",   10.0020E-03,            0.,   425.267E-03,   1.97473E-06,       207.320
C:/ALETube/PressureUpdate/LargeStep/DeformErode/JobErode.odb,Step-1,Increment      3: Step Time =,    30.00,"TUBE-1",          5581,   7.07107E-03,   7.07107E-03,   425.000E-03,NA,NA,"",   10.0020E-03,            0.,   425.267E-03,   1.97466E-06,       207.426
C:/ALETube/PressureUpdate/LargeStep/DeformErode/JobErode.odb,Step-1,Increment      3: Step Time =,    30.00,"TUBE-1",          5745,   7.07107E-03,   7.07107E-03,     437.5E-03,NA,NA,"",   10.0020E-03,            0.,   437.767E-03,   2.03280E-06,       213.531
C:/ALETube/PressureUpdate/LargeStep/DeformErode/JobErode.odb,Step-1,Increment      3: Step Time =,    30.00,"TUBE-1",          5779,   5.87785E-03,   8.09017E-03,     437.5E-03,NA,NA,"",   10.0020E-03,            0.,   437.767E-03,   2.03286E-06,       213.422
C:/ALETube/PressureUpdate/LargeStep/DeformErode/JobErode.odb,Step-1,Increment      3: Step Time =,    30.00,"TUBE-1",          5943,   5.87785E-03,   8.09017E-03,   450.000E-03,NA,NA,"",   10.0021E-03,  -867.362E-21,   450.266E-03,   2.09100E-06,       219.525
C:/ALETube/PressureUpdate/LargeStep/DeformErode/JobErode.odb,Step-1,Increment      3: Step Time =,    30.00,"TUBE-1",          5909,   7.07107E-03,   7.07107E-03,   450.000E-03,NA,NA,"",   10.0021E-03,            0.,   450.266E-03,   2.09093E-06,       219.637
C:/ALETube/PressureUpdate/LargeStep/DeformErode/JobErode.odb,Step-1,Increment      3: Step Time =,    30.00,"TUBE-1",          6107,   5.87785E-03,   8.09017E-03,   462.500E-03,NA,NA,"",   10.0021E-03,   867.362E-21,   462.765E-03,   2.14914E-06,       225.628
C:/ALETube/PressureUpdate/LargeStep/DeformErode/JobErode.odb,Step-1,Increment      3: Step Time =,    30.00,"TUBE-1",          6073,   7.07107E-03,   7.07107E-03,   462.500E-03,NA,NA,"",   10.0021E-03,            0.,   462.765E-03,   2.14907E-06,       225.743
C:/ALETube/PressureUpdate/LargeStep/DeformErode/JobErode.odb,Step-1,Increment      3: Step Time =,    30.00,"TUBE-1",          6271,   5.87785E-03,   8.09017E-03,   475.000E-03,NA,NA,"",   10.0022E-03,            0.,   475.264E-03,   2.20728E-06,       231.731
C:/ALETube/PressureUpdate/LargeStep/DeformErode/JobErode.odb,Step-1,Increment      3: Step Time =,    30.00,"TUBE-1",          6237,   7.07107E-03,   7.07107E-03,   475.000E-03,NA,NA,"",   10.0022E-03,            0.,   475.264E-03,   2.20721E-06,       231.850
C:/ALETube/PressureUpdate/LargeStep/DeformErode/JobErode.odb,Step-1,Increment      3: Step Time =,    30.00,"TUBE-1",          6435,   5.87785E-03,   8.09017E-03,   487.500E-03,NA,NA,"",   10.0023E-03,            0.,   487.763E-03,   2.26543E-06,       237.835
C:/ALETube/PressureUpdate/LargeStep/DeformErode/JobErode.odb,Step-1,Increment      3: Step Time =,    30.00,"TUBE-1",          6401,   7.07107E-03,   7.07107E-03,   487.500E-03,NA,NA,"",   10.0023E-03,            0.,   487.763E-03,   2.26536E-06,       237.956
C:/ALETube/PressureUpdate/LargeStep/DeformErode/JobErode.odb,Step-1,Increment      3: Step Time =,    30.00,"TUBE-1",          6565,   7.07107E-03,   7.07107E-03,      500.E-03,NA,NA,"",   10.0023E-03,            0.,   500.263E-03,   2.32351E-06,       244.063
C:/ALETube/PressureUpdate/LargeStep/DeformErode/JobErode.odb,Step-1,Increment      3: Step Time =,    30.00,"TUBE-1",          6599,   5.87785E-03,   8.09017E-03,      500.E-03,NA,NA,"",   10.0023E-03,  -867.362E-21,   500.263E-03,   2.32358E-06,       243.939
C:/ALETube/PressureUpdate/LargeStep/DeformErode/JobErode.odb,Step-1,Increment      3: Step Time =,    30.00,"TUBE-1",          6763,   5.87785E-03,   8.09017E-03,   512.500E-03,NA,NA,"",   10.0024E-03,  -867.362E-21,   512.762E-03,   2.38173E-06,       250.043
C:/ALETube/PressureUpdate/LargeStep/DeformErode/JobErode.odb,Step-1,Increment      3: Step Time =,    30.00,"TUBE-1",          6729,   7.07107E-03,   7.07107E-03,   512.500E-03,NA,NA,"",   10.0024E-03,            0.,   512.762E-03,   2.38166E-06,       250.171
C:/ALETube/PressureUpdate/LargeStep/DeformErode/JobErode.odb,Step-1,Increment      3: Step Time =,    30.00,"TUBE-1",          6927,   5.87785E-03,   8.09017E-03,   525.000E-03,NA,NA,"",   10.0024E-03,            0.,   525.261E-03,   2.43989E-06,       256.147
C:/ALETube/PressureUpdate/LargeStep/DeformErode/JobErode.odb,Step-1,Increment      3: Step Time =,    30.00,"TUBE-1",          6893,   7.07107E-03,   7.07107E-03,   525.000E-03,NA,NA,"",   10.0024E-03,            0.,   525.261E-03,   2.43981E-06,       256.278
C:/ALETube/PressureUpdate/LargeStep/DeformErode/JobErode.odb,Step-1,Increment      3: Step Time =,    30.00,"TUBE-1",          7091,   5.87785E-03,   8.09017E-03,   537.500E-03,NA,NA,"",   10.0025E-03,  -867.362E-21,   537.760E-03,   2.49805E-06,       262.252
C:/ALETube/PressureUpdate/LargeStep/DeformErode/JobErode.odb,Step-1,Increment      3: Step Time =,    30.00,"TUBE-1",          7057,   7.07107E-03,   7.07107E-03,   537.500E-03,NA,NA,"",   10.0025E-03,            0.,   537.760E-03,   2.49797E-06,       262.386
C:/ALETube/PressureUpdate/LargeStep/DeformErode/JobErode.odb,Step-1,Increment      3: Step Time =,    30.00,"TUBE-1",          7255,   5.87785E-03,   8.09017E-03,   550.000E-03,NA,NA,"",   10.0026E-03,  -867.362E-21,   550.259E-03,   2.55621E-06,       268.357
C:/ALETube/PressureUpdate/LargeStep/DeformErode/JobErode.odb,Step-1,Increment      3: Step Time =,    30.00,"TUBE-1",          7221,   7.07107E-03,   7.07107E-03,   550.000E-03,NA,NA,"",   10.0026E-03,            0.,   550.259E-03,   2.55613E-06,       268.494
C:/ALETube/PressureUpdate/LargeStep/DeformErode/JobErode.odb,Step-1,Increment      3: Step Time =,    30.00,"TUBE-1",          7385,   7.07107E-03,   7.07107E-03,     562.5E-03,NA,NA,"",   10.0026E-03,            0.,   562.758E-03,   2.61430E-06,       274.602
C:/ALETube/PressureUpdate/LargeStep/DeformErode/JobErode.odb,Step-1,Increment      3: Step Time =,    30.00,"TUBE-1",          7419,   5.87785E-03,   8.09017E-03,     562.5E-03,NA,NA,"",   10.0026E-03,  -867.362E-21,   562.758E-03,   2.61438E-06,       274.462
C:/ALETube/PressureUpdate/LargeStep/DeformErode/JobErode.odb,Step-1,Increment      3: Step Time =,    30.00,"TUBE-1",          7583,   5.87785E-03,   8.09017E-03,   575.000E-03,NA,NA,"",   10.0027E-03,            0.,   575.257E-03,   2.67255E-06,       280.568
C:/ALETube/PressureUpdate/LargeStep/DeformErode/JobErode.odb,Step-1,Increment      3: Step Time =,    30.00,"TUBE-1",          7549,   7.07107E-03,   7.07107E-03,   575.000E-03,NA,NA,"",   10.0027E-03,            0.,   575.257E-03,   2.67246E-06,       280.711
C:/ALETube/PressureUpdate/LargeStep/DeformErode/JobErode.odb,Step-1,Increment      3: Step Time =,    30.00,"TUBE-1",          7747,   5.87785E-03,   8.09017E-03,   587.500E-03,NA,NA,"",   10.0027E-03,  -867.362E-21,   587.756E-03,   2.73072E-06,       286.673
C:/ALETube/PressureUpdate/LargeStep/DeformErode/JobErode.odb,Step-1,Increment      3: Step Time =,    30.00,"TUBE-1",          7713,   7.07107E-03,   7.07107E-03,   587.500E-03,NA,NA,"",   10.0027E-03,            0.,   587.756E-03,   2.73063E-06,       286.820
C:/ALETube/PressureUpdate/LargeStep/DeformErode/JobErode.odb,Step-1,Increment      3: Step Time =,    30.00,"TUBE-1",          7911,   5.87785E-03,   8.09017E-03,   600.000E-03,NA,NA,"",   10.0028E-03,  -867.362E-21,   600.255E-03,   2.78890E-06,       292.779
C:/ALETube/PressureUpdate/LargeStep/DeformErode/JobErode.odb,Step-1,Increment      3: Step Time =,    30.00,"TUBE-1",          7877,   7.07107E-03,   7.07107E-03,   600.000E-03,NA,NA,"",   10.0028E-03,            0.,   600.255E-03,   2.78881E-06,       292.929
C:/ALETube/PressureUpdate/LargeStep/DeformErode/JobErode.odb,Step-1,Increment      3: Step Time =,    30.00,"TUBE-1",          8075,   5.87785E-03,   8.09017E-03,   612.500E-03,NA,NA,"",   10.0028E-03,            0.,   612.754E-03,   2.84707E-06,       298.886
C:/ALETube/PressureUpdate/LargeStep/DeformErode/JobErode.odb,Step-1,Increment      3: Step Time =,    30.00,"TUBE-1",          8041,   7.07107E-03,   7.07107E-03,   612.500E-03,NA,NA,"",   10.0028E-03,            0.,   612.754E-03,   2.84698E-06,       299.039
C:/ALETube/PressureUpdate/LargeStep/DeformErode/JobErode.odb,Step-1,Increment      3: Step Time =,    30.00,"TUBE-1",          8205,   7.07107E-03,   7.07107E-03,      625.E-03,NA,NA,"",   10.0029E-03,            0.,   625.253E-03,   2.90516E-06,       305.148
C:/ALETube/PressureUpdate/LargeStep/DeformErode/JobErode.odb,Step-1,Increment      3: Step Time =,    30.00,"TUBE-1",          8239,   5.87785E-03,   8.09017E-03,      625.E-03,NA,NA,"",   10.0029E-03,            0.,   625.253E-03,   2.90526E-06,       304.992
C:/ALETube/PressureUpdate/LargeStep/DeformErode/JobErode.odb,Step-1,Increment      3: Step Time =,    30.00,"TUBE-1",          8403,   5.87785E-03,   8.09017E-03,   637.500E-03,NA,NA,"",   10.0030E-03,            0.,   637.752E-03,   2.96344E-06,       311.099
C:/ALETube/PressureUpdate/LargeStep/DeformErode/JobErode.odb,Step-1,Increment      3: Step Time =,    30.00,"TUBE-1",          8369,   7.07107E-03,   7.07107E-03,   637.500E-03,NA,NA,"",   10.0030E-03,            0.,   637.752E-03,   2.96335E-06,       311.259
C:/ALETube/PressureUpdate/LargeStep/DeformErode/JobErode.odb,Step-1,Increment      3: Step Time =,    30.00,"TUBE-1",          8567,   5.87785E-03,   8.09017E-03,   650.000E-03,NA,NA,"",   10.0030E-03,   867.362E-21,   650.250E-03,   3.02163E-06,       317.207
C:/ALETube/PressureUpdate/LargeStep/DeformErode/JobErode.odb,Step-1,Increment      3: Step Time =,    30.00,"TUBE-1",          8533,   7.07107E-03,   7.07107E-03,   650.000E-03,NA,NA,"",   10.0030E-03,            0.,   650.250E-03,   3.02153E-06,       317.369
C:/ALETube/PressureUpdate/LargeStep/DeformErode/JobErode.odb,Step-1,Increment      3: Step Time =,    30.00,"TUBE-1",          8731,   5.87785E-03,   8.09017E-03,   662.500E-03,NA,NA,"",   10.0031E-03,  -867.362E-21,   662.749E-03,   3.07982E-06,       323.314
C:/ALETube/PressureUpdate/LargeStep/DeformErode/JobErode.odb,Step-1,Increment      3: Step Time =,    30.00,"TUBE-1",          8697,   7.07107E-03,   7.07107E-03,   662.500E-03,NA,NA,"",   10.0031E-03,            0.,   662.749E-03,   3.07972E-06,       323.480
C:/ALETube/PressureUpdate/LargeStep/DeformErode/JobErode.odb,Step-1,Increment      3: Step Time =,    30.00,"TUBE-1",          8895,   5.87785E-03,   8.09017E-03,   675.000E-03,NA,NA,"",   10.0031E-03,  -867.362E-21,   675.248E-03,   3.13801E-06,       329.422
C:/ALETube/PressureUpdate/LargeStep/DeformErode/JobErode.odb,Step-1,Increment      3: Step Time =,    30.00,"TUBE-1",          8861,   7.07107E-03,   7.07107E-03,   675.000E-03,NA,NA,"",   10.0031E-03,            0.,   675.248E-03,   3.13791E-06,       329.590
C:/ALETube/PressureUpdate/LargeStep/DeformErode/JobErode.odb,Step-1,Increment      3: Step Time =,    30.00,"TUBE-1",          9025,   7.07107E-03,   7.07107E-03,     687.5E-03,NA,NA,"",   10.0032E-03,            0.,   687.747E-03,   3.19611E-06,       335.702
C:/ALETube/PressureUpdate/LargeStep/DeformErode/JobErode.odb,Step-1,Increment      3: Step Time =,    30.00,"TUBE-1",          9059,   5.87785E-03,   8.09017E-03,     687.5E-03,NA,NA,"",   10.0032E-03,            0.,   687.747E-03,   3.19621E-06,       335.530
C:/ALETube/PressureUpdate/LargeStep/DeformErode/JobErode.odb,Step-1,Increment      3: Step Time =,    30.00,"TUBE-1",          9223,   5.87785E-03,   8.09017E-03,   700.000E-03,NA,NA,"",   10.0033E-03,            0.,   700.246E-03,   3.25441E-06,       341.638
C:/ALETube/PressureUpdate/LargeStep/DeformErode/JobErode.odb,Step-1,Increment      3: Step Time =,    30.00,"TUBE-1",          9189,   7.07107E-03,   7.07107E-03,   700.000E-03,NA,NA,"",   10.0033E-03,            0.,   700.246E-03,   3.25431E-06,       341.813
C:/ALETube/PressureUpdate/LargeStep/DeformErode/JobErode.odb,Step-1,Increment      3: Step Time =,    30.00,"TUBE-1",          9387,   5.87785E-03,   8.09017E-03,   712.500E-03,NA,NA,"",   10.0033E-03,   867.362E-21,   712.745E-03,   3.31262E-06,       347.747
C:/ALETube/PressureUpdate/LargeStep/DeformErode/JobErode.odb,Step-1,Increment      3: Step Time =,    30.00,"TUBE-1",          9353,   7.07107E-03,   7.07107E-03,   712.500E-03,NA,NA,"",   10.0033E-03,            0.,   712.745E-03,   3.31251E-06,       347.925
C:/ALETube/PressureUpdate/LargeStep/DeformErode/JobErode.odb,Step-1,Increment      3: Step Time =,    30.00,"TUBE-1",          9551,   5.87785E-03,   8.09017E-03,   725.000E-03,NA,NA,"",   10.0034E-03,  -867.362E-21,   725.243E-03,   3.37082E-06,       353.856
C:/ALETube/PressureUpdate/LargeStep/DeformErode/JobErode.odb,Step-1,Increment      3: Step Time =,    30.00,"TUBE-1",          9517,   7.07107E-03,   7.07107E-03,   725.000E-03,NA,NA,"",   10.0034E-03,            0.,   725.243E-03,   3.37072E-06,       354.037
C:/ALETube/PressureUpdate/LargeStep/DeformErode/JobErode.odb,Step-1,Increment      3: Step Time =,    30.00,"TUBE-1",          9715,   5.87785E-03,   8.09017E-03,   737.500E-03,NA,NA,"",   10.0034E-03,   867.362E-21,   737.742E-03,   3.42903E-06,       359.965
C:/ALETube/PressureUpdate/LargeStep/DeformErode/JobErode.odb,Step-1,Increment      3: Step Time =,    30.00,"TUBE-1",          9681,   7.07107E-03,   7.07107E-03,   737.500E-03,NA,NA,"",   10.0034E-03,            0.,   737.742E-03,   3.42892E-06,       360.149
C:/ALETube/PressureUpdate/LargeStep/DeformErode/JobErode.odb,Step-1,Increment      3: Step Time =,    30.00,"TUBE-1",          9845,   7.07107E-03,   7.07107E-03,      750.E-03,NA,NA,"",   10.0035E-03,            0.,   750.241E-03,   3.48713E-06,       366.262
C:/ALETube/PressureUpdate/LargeStep/DeformErode/JobErode.odb,Step-1,Increment      3: Step Time =,    30.00,"TUBE-1",          9879,   5.87785E-03,   8.09017E-03,      750.E-03,NA,NA,"",   10.0035E-03,            0.,   750.241E-03,   3.48725E-06,       366.074
C:/ALETube/PressureUpdate/LargeStep/DeformErode/JobErode.odb,Step-1,Increment      3: Step Time =,    30.00,"TUBE-1",         10043,   5.87785E-03,   8.09017E-03,   762.500E-03,NA,NA,"",   10.0035E-03,            0.,   762.739E-03,   3.54546E-06,       372.184
C:/ALETube/PressureUpdate/LargeStep/DeformErode/JobErode.odb,Step-1,Increment      3: Step Time =,    30.00,"TUBE-1",         10009,   7.07107E-03,   7.07107E-03,   762.500E-03,NA,NA,"",   10.0035E-03,            0.,   762.739E-03,   3.54535E-06,       372.374
C:/ALETube/PressureUpdate/LargeStep/DeformErode/JobErode.odb,Step-1,Increment      3: Step Time =,    30.00,"TUBE-1",         10207,   5.87785E-03,   8.09017E-03,   775.000E-03,NA,NA,"",   10.0036E-03,            0.,   775.238E-03,   3.60368E-06,       378.294
C:/ALETube/PressureUpdate/LargeStep/DeformErode/JobErode.odb,Step-1,Increment      3: Step Time =,    30.00,"TUBE-1",         10173,   7.07107E-03,   7.07107E-03,   775.000E-03,NA,NA,"",   10.0036E-03,            0.,   775.238E-03,   3.60357E-06,       378.488
C:/ALETube/PressureUpdate/LargeStep/DeformErode/JobErode.odb,Step-1,Increment      3: Step Time =,    30.00,"TUBE-1",         10371,   5.87785E-03,   8.09017E-03,   787.500E-03,NA,NA,"",   10.0037E-03,            0.,   787.737E-03,   3.66190E-06,       384.404
C:/ALETube/PressureUpdate/LargeStep/DeformErode/JobErode.odb,Step-1,Increment      3: Step Time =,    30.00,"TUBE-1",         10337,   7.07107E-03,   7.07107E-03,   787.500E-03,NA,NA,"",   10.0037E-03,            0.,   787.737E-03,   3.66179E-06,       384.601
C:/ALETube/PressureUpdate/LargeStep/DeformErode/JobErode.odb,Step-1,Increment      3: Step Time =,    30.00,"TUBE-1",         10535,   5.87785E-03,   8.09017E-03,   800.000E-03,NA,NA,"",   10.0037E-03,            0.,   800.235E-03,   3.72013E-06,       390.515
C:/ALETube/PressureUpdate/LargeStep/DeformErode/JobErode.odb,Step-1,Increment      3: Step Time =,    30.00,"TUBE-1",         10501,   7.07107E-03,   7.07107E-03,   800.000E-03,NA,NA,"",   10.0037E-03,            0.,   800.235E-03,   3.72001E-06,       390.715
C:/ALETube/PressureUpdate/LargeStep/DeformErode/JobErode.odb,Step-1,Increment      3: Step Time =,    30.00,"TUBE-1",         10665,   7.07107E-03,   7.07107E-03,     812.5E-03,NA,NA,"",   10.0038E-03,            0.,   812.734E-03,   3.77824E-06,       396.829
C:/ALETube/PressureUpdate/LargeStep/DeformErode/JobErode.odb,Step-1,Increment      3: Step Time =,    30.00,"TUBE-1",         10699,   5.87785E-03,   8.09017E-03,     812.5E-03,NA,NA,"",   10.0038E-03,            0.,   812.734E-03,   3.77836E-06,       396.626
C:/ALETube/PressureUpdate/LargeStep/DeformErode/JobErode.odb,Step-1,Increment      3: Step Time =,    30.00,"TUBE-1",         10863,   5.87785E-03,   8.09017E-03,   825.000E-03,NA,NA,"",   10.0038E-03,            0.,   825.232E-03,   3.83659E-06,       402.737
C:/ALETube/PressureUpdate/LargeStep/DeformErode/JobErode.odb,Step-1,Increment      3: Step Time =,    30.00,"TUBE-1",         10829,   7.07107E-03,   7.07107E-03,   825.000E-03,NA,NA,"",   10.0038E-03,            0.,   825.232E-03,   3.83647E-06,       402.943
C:/ALETube/PressureUpdate/LargeStep/DeformErode/JobErode.odb,Step-1,Increment      3: Step Time =,    30.00,"TUBE-1",         11027,   5.87785E-03,   8.09017E-03,   837.500E-03,NA,NA,"",   10.0039E-03,  -867.362E-21,   837.731E-03,   3.89482E-06,       408.848
C:/ALETube/PressureUpdate/LargeStep/DeformErode/JobErode.odb,Step-1,Increment      3: Step Time =,    30.00,"TUBE-1",         10993,   7.07107E-03,   7.07107E-03,   837.500E-03,NA,NA,"",   10.0039E-03,            0.,   837.731E-03,   3.89470E-06,       409.057
C:/ALETube/PressureUpdate/LargeStep/DeformErode/JobErode.odb,Step-1,Increment      3: Step Time =,    30.00,"TUBE-1",         11191,   5.87785E-03,   8.09017E-03,   850.000E-03,NA,NA,"",   10.0040E-03,            0.,   850.230E-03,   3.95306E-06,       414.960
C:/ALETube/PressureUpdate/LargeStep/DeformErode/JobErode.odb,Step-1,Increment      3: Step Time =,    30.00,"TUBE-1",         11157,   7.07107E-03,   7.07107E-03,   850.000E-03,NA,NA,"",   10.0040E-03,            0.,   850.230E-03,   3.95293E-06,       415.172
C:/ALETube/PressureUpdate/LargeStep/DeformErode/JobErode.odb,Step-1,Increment      3: Step Time =,    30.00,"TUBE-1",         11355,   5.87785E-03,   8.09017E-03,   862.500E-03,NA,NA,"",   10.0040E-03,            0.,   862.728E-03,   4.01130E-06,       421.072
C:/ALETube/PressureUpdate/LargeStep/DeformErode/JobErode.odb,Step-1,Increment      3: Step Time =,    30.00,"TUBE-1",         11321,   7.07107E-03,   7.07107E-03,   862.500E-03,NA,NA,"",   10.0040E-03,            0.,   862.728E-03,   4.01117E-06,       421.287
C:/ALETube/PressureUpdate/LargeStep/DeformErode/JobErode.odb,Step-1,Increment      3: Step Time =,    30.00,"TUBE-1",         11485,   7.07107E-03,   7.07107E-03,      875.E-03,NA,NA,"",   10.0041E-03,            0.,   875.226E-03,   4.06942E-06,       427.403
C:/ALETube/PressureUpdate/LargeStep/DeformErode/JobErode.odb,Step-1,Increment      3: Step Time =,    30.00,"TUBE-1",         11519,   5.87785E-03,   8.09017E-03,      875.E-03,NA,NA,"",   10.0041E-03,  -867.362E-21,   875.226E-03,   4.06955E-06,       427.184
C:/ALETube/PressureUpdate/LargeStep/DeformErode/JobErode.odb,Step-1,Increment      3: Step Time =,    30.00,"TUBE-1",         11683,   5.87785E-03,   8.09017E-03,   887.500E-03,NA,NA,"",   10.0041E-03,   867.362E-21,   887.725E-03,   4.12779E-06,       433.296
C:/ALETube/PressureUpdate/LargeStep/DeformErode/JobErode.odb,Step-1,Increment      3: Step Time =,    30.00,"TUBE-1",         11649,   7.07107E-03,   7.07107E-03,   887.500E-03,NA,NA,"",   10.0041E-03,            0.,   887.725E-03,   4.12766E-06,       433.518
C:/ALETube/PressureUpdate/LargeStep/DeformErode/JobErode.odb,Step-1,Increment      3: Step Time =,    30.00,"TUBE-1",         11847,   5.87785E-03,   8.09017E-03,   900.000E-03,NA,NA,"",   10.0042E-03,  -867.362E-21,   900.223E-03,   4.18604E-06,       439.409
C:/ALETube/PressureUpdate/LargeStep/DeformErode/JobErode.odb,Step-1,Increment      3: Step Time =,    30.00,"TUBE-1",         11813,   7.07107E-03,   7.07107E-03,   900.000E-03,NA,NA,"",   10.0042E-03,            0.,   900.223E-03,   4.18591E-06,       439.634
C:/ALETube/PressureUpdate/LargeStep/DeformErode/JobErode.odb,Step-1,Increment      3: Step Time =,    30.00,"TUBE-1",         12011,   5.87785E-03,   8.09017E-03,   912.500E-03,NA,NA,"",   10.0042E-03,  -867.362E-21,   912.722E-03,   4.24430E-06,       445.522
C:/ALETube/PressureUpdate/LargeStep/DeformErode/JobErode.odb,Step-1,Increment      3: Step Time =,    30.00,"TUBE-1",         11977,   7.07107E-03,   7.07107E-03,   912.500E-03,NA,NA,"",   10.0042E-03,            0.,   912.722E-03,   4.24416E-06,       445.750
C:/ALETube/PressureUpdate/LargeStep/DeformErode/JobErode.odb,Step-1,Increment      3: Step Time =,    30.00,"TUBE-1",         12175,   5.87785E-03,   8.09017E-03,   925.000E-03,NA,NA,"",   10.0043E-03,            0.,   925.220E-03,   4.30255E-06,       451.636
C:/ALETube/PressureUpdate/LargeStep/DeformErode/JobErode.odb,Step-1,Increment      3: Step Time =,    30.00,"TUBE-1",         12141,   7.07107E-03,   7.07107E-03,   925.000E-03,NA,NA,"",   10.0043E-03,            0.,   925.220E-03,   4.30242E-06,       451.867
C:/ALETube/PressureUpdate/LargeStep/DeformErode/JobErode.odb,Step-1,Increment      3: Step Time =,    30.00,"TUBE-1",         12305,   7.07107E-03,   7.07107E-03,     937.5E-03,NA,NA,"",   10.0044E-03,            0.,   937.719E-03,   4.36067E-06,       457.984
C:/ALETube/PressureUpdate/LargeStep/DeformErode/JobErode.odb,Step-1,Increment      3: Step Time =,    30.00,"TUBE-1",         12339,   5.87785E-03,   8.09017E-03,     937.5E-03,NA,NA,"",   10.0044E-03,            0.,   937.719E-03,   4.36081E-06,       457.749
C:/ALETube/PressureUpdate/LargeStep/DeformErode/JobErode.odb,Step-1,Increment      3: Step Time =,    30.00,"TUBE-1",         12503,   5.87785E-03,   8.09017E-03,   950.000E-03,NA,NA,"",   10.0044E-03,  -867.362E-21,   950.217E-03,   4.41908E-06,       463.863
C:/ALETube/PressureUpdate/LargeStep/DeformErode/JobErode.odb,Step-1,Increment      3: Step Time =,    30.00,"TUBE-1",         12469,   7.07107E-03,   7.07107E-03,   950.000E-03,NA,NA,"",   10.0044E-03,            0.,   950.217E-03,   4.41894E-06,       464.101
C:/ALETube/PressureUpdate/LargeStep/DeformErode/JobErode.odb,Step-1,Increment      3: Step Time =,    30.00,"TUBE-1",         12667,   5.87785E-03,   8.09017E-03,   962.500E-03,NA,NA,"",   10.0045E-03,   867.362E-21,   962.715E-03,   4.47734E-06,       469.977
C:/ALETube/PressureUpdate/LargeStep/DeformErode/JobErode.odb,Step-1,Increment      3: Step Time =,    30.00,"TUBE-1",         12633,   7.07107E-03,   7.07107E-03,   962.500E-03,NA,NA,"",   10.0045E-03,            0.,   962.715E-03,   4.47720E-06,       470.218
C:/ALETube/PressureUpdate/LargeStep/DeformErode/JobErode.odb,Step-1,Increment      3: Step Time =,    30.00,"TUBE-1",         12831,   5.87785E-03,   8.09017E-03,   975.000E-03,NA,NA,"",   10.0045E-03,  -867.362E-21,   975.214E-03,   4.53561E-06,       476.092
C:/ALETube/PressureUpdate/LargeStep/DeformErode/JobErode.odb,Step-1,Increment      3: Step Time =,    30.00,"TUBE-1",         12797,   7.07107E-03,   7.07107E-03,   975.000E-03,NA,NA,"",   10.0045E-03,            0.,   975.214E-03,   4.53547E-06,       476.336
C:/ALETube/PressureUpdate/LargeStep/DeformErode/JobErode.odb,Step-1,Increment      3: Step Time =,    30.00,"TUBE-1",         12995,   5.87785E-03,   8.09017E-03,   987.500E-03,NA,NA,"",   10.0046E-03,            0.,   987.712E-03,   4.59389E-06,       482.207
C:/ALETube/PressureUpdate/LargeStep/DeformErode/JobErode.odb,Step-1,Increment      3: Step Time =,    30.00,"TUBE-1",         12961,   7.07107E-03,   7.07107E-03,   987.500E-03,NA,NA,"",   10.0046E-03,            0.,   987.712E-03,   4.59374E-06,       482.453
C:/ALETube/PressureUpdate/LargeStep/DeformErode/JobErode.odb,Step-1,Increment      3: Step Time =,    30.00,"TUBE-1",         13125,   7.07107E-03,   7.07107E-03,            1.,NA,NA,"",   10.0047E-03,            0.,       1.00021,   4.65201E-06,       488.572
C:/ALETube/PressureUpdate/LargeStep/DeformErode/JobErode.odb,Step-1,Increment      3: Step Time =,    30.00,"TUBE-1",         13159,   5.87785E-03,   8.09017E-03,            1.,NA,NA,"",   10.0047E-03,            0.,       1.00021,   4.65216E-06,       488.322
C:/ALETube/PressureUpdate/LargeStep/DeformErode/JobErode.odb,Step-1,Increment      3: Step Time =,    30.00,"TUBE-1",         13323,   5.87785E-03,   8.09017E-03,       1.01250,NA,NA,"",   10.0047E-03,            0.,       1.01271,   4.71044E-06,       494.437
C:/ALETube/PressureUpdate/LargeStep/DeformErode/JobErode.odb,Step-1,Increment      3: Step Time =,    30.00,"TUBE-1",         13289,   7.07107E-03,   7.07107E-03,       1.01250,NA,NA,"",   10.0047E-03,            0.,       1.01271,   4.71029E-06,       494.690
C:/ALETube/PressureUpdate/LargeStep/DeformErode/JobErode.odb,Step-1,Increment      3: Step Time =,    30.00,"TUBE-1",         13487,   5.87785E-03,   8.09017E-03,       1.02500,NA,NA,"",   10.0048E-03,            0.,       1.02521,   4.76872E-06,       500.552
C:/ALETube/PressureUpdate/LargeStep/DeformErode/JobErode.odb,Step-1,Increment      3: Step Time =,    30.00,"TUBE-1",         13453,   7.07107E-03,   7.07107E-03,       1.02500,NA,NA,"",   10.0048E-03,            0.,       1.02521,   4.76857E-06,       500.809
C:/ALETube/PressureUpdate/LargeStep/DeformErode/JobErode.odb,Step-1,Increment      3: Step Time =,    30.00,"TUBE-1",         13617,   7.07107E-03,   7.07107E-03,       1.03750,NA,NA,"",   10.0048E-03,            0.,       1.03770,   4.82685E-06,       506.928
C:/ALETube/PressureUpdate/LargeStep/DeformErode/JobErode.odb,Step-1,Increment      3: Step Time =,    30.00,"TUBE-1",         13651,   5.87785E-03,   8.09017E-03,       1.03750,NA,NA,"",   10.0048E-03,            0.,       1.03770,   4.82701E-06,       506.668
C:/ALETube/PressureUpdate/LargeStep/DeformErode/JobErode.odb,Step-1,Increment      3: Step Time =,    30.00,"TUBE-1",         13815,   5.87785E-03,   8.09017E-03,       1.05000,NA,NA,"",   10.0049E-03,            0.,       1.05020,   4.88530E-06,       512.785
C:/ALETube/PressureUpdate/LargeStep/DeformErode/JobErode.odb,Step-1,Increment      3: Step Time =,    30.00,"TUBE-1",         13781,   7.07107E-03,   7.07107E-03,       1.05000,NA,NA,"",   10.0049E-03,            0.,       1.05020,   4.88514E-06,       513.047
C:/ALETube/PressureUpdate/LargeStep/DeformErode/JobErode.odb,Step-1,Increment      3: Step Time =,    30.00,"TUBE-1",         13979,   5.87785E-03,   8.09017E-03,        1.0625,NA,NA,"",   10.0049E-03,            0.,       1.06270,   4.94359E-06,       518.901
C:/ALETube/PressureUpdate/LargeStep/DeformErode/JobErode.odb,Step-1,Increment      3: Step Time =,    30.00,"TUBE-1",         13945,   7.07107E-03,   7.07107E-03,        1.0625,NA,NA,"",   10.0049E-03,            0.,       1.06270,   4.94343E-06,       519.167
C:/ALETube/PressureUpdate/LargeStep/DeformErode/JobErode.odb,Step-1,Increment      3: Step Time =,    30.00,"TUBE-1",         14109,   7.07107E-03,   7.07107E-03,       1.07500,NA,NA,"",   10.0050E-03,            0.,       1.07520,   5.00172E-06,       525.287
C:/ALETube/PressureUpdate/LargeStep/DeformErode/JobErode.odb,Step-1,Increment      3: Step Time =,    30.00,"TUBE-1",         14143,   5.87785E-03,   8.09017E-03,       1.07500,NA,NA,"",   10.0050E-03,            0.,       1.07520,   5.00188E-06,       525.018
C:/ALETube/PressureUpdate/LargeStep/DeformErode/JobErode.odb,Step-1,Increment      3: Step Time =,    30.00,"TUBE-1",         14307,   5.87785E-03,   8.09017E-03,       1.08750,NA,NA,"",   10.0051E-03,  -867.362E-21,       1.08770,   5.06018E-06,       531.135
C:/ALETube/PressureUpdate/LargeStep/DeformErode/JobErode.odb,Step-1,Increment      3: Step Time =,    30.00,"TUBE-1",         14273,   7.07107E-03,   7.07107E-03,       1.08750,NA,NA,"",   10.0051E-03,            0.,       1.08770,   5.06002E-06,       531.407
C:/ALETube/PressureUpdate/LargeStep/DeformErode/JobErode.odb,Step-1,Increment      3: Step Time =,    30.00,"TUBE-1",         14471,   5.87785E-03,   8.09017E-03,       1.10000,NA,NA,"",   10.0051E-03,  -867.362E-21,       1.10020,   5.11848E-06,       537.252
C:/ALETube/PressureUpdate/LargeStep/DeformErode/JobErode.odb,Step-1,Increment      3: Step Time =,    30.00,"TUBE-1",         14437,   7.07107E-03,   7.07107E-03,       1.10000,NA,NA,"",   10.0051E-03,            0.,       1.10020,   5.11832E-06,       537.527
C:/ALETube/PressureUpdate/LargeStep/DeformErode/JobErode.odb,Step-1,Increment      3: Step Time =,    30.00,"TUBE-1",         14635,   5.87785E-03,   8.09017E-03,       1.11250,NA,NA,"",   10.0052E-03,            0.,       1.11269,   5.17678E-06,       543.370
C:/ALETube/PressureUpdate/LargeStep/DeformErode/JobErode.odb,Step-1,Increment      3: Step Time =,    30.00,"TUBE-1",         14601,   7.07107E-03,   7.07107E-03,       1.11250,NA,NA,"",   10.0052E-03,            0.,       1.11269,   5.17662E-06,       543.648
C:/ALETube/PressureUpdate/LargeStep/DeformErode/JobErode.odb,Step-1,Increment      3: Step Time =,    30.00,"TUBE-1",         14799,   5.87785E-03,   8.09017E-03,         1.125,NA,NA,"",   10.0052E-03,            0.,       1.12519,   5.23509E-06,       549.487
C:/ALETube/PressureUpdate/LargeStep/DeformErode/JobErode.odb,Step-1,Increment      3: Step Time =,    30.00,"TUBE-1",         14765,   7.07107E-03,   7.07107E-03,         1.125,NA,NA,"",   10.0052E-03,            0.,       1.12519,   5.23492E-06,       549.769
C:/ALETube/PressureUpdate/LargeStep/DeformErode/JobErode.odb,Step-1,Increment      3: Step Time =,    30.00,"TUBE-1",         14929,   7.07107E-03,   7.07107E-03,       1.13750,NA,NA,"",   10.0053E-03,            0.,       1.13769,   5.29323E-06,       555.890
C:/ALETube/PressureUpdate/LargeStep/DeformErode/JobErode.odb,Step-1,Increment      3: Step Time =,    30.00,"TUBE-1",         14963,   5.87785E-03,   8.09017E-03,       1.13750,NA,NA,"",   10.0053E-03,            0.,       1.13769,   5.29340E-06,       555.606
C:/ALETube/PressureUpdate/LargeStep/DeformErode/JobErode.odb,Step-1,Increment      3: Step Time =,    30.00,"TUBE-1",         15127,   5.87785E-03,   8.09017E-03,       1.15000,NA,NA,"",   10.0054E-03,            0.,       1.15019,   5.35172E-06,       561.724
C:/ALETube/PressureUpdate/LargeStep/DeformErode/JobErode.odb,Step-1,Increment      3: Step Time =,    30.00,"TUBE-1",         15093,   7.07107E-03,   7.07107E-03,       1.15000,NA,NA,"",   10.0054E-03,            0.,       1.15019,   5.35154E-06,       562.012
C:/ALETube/PressureUpdate/LargeStep/DeformErode/JobErode.odb,Step-1,Increment      3: Step Time =,    30.00,"TUBE-1",         15291,   5.87785E-03,   8.09017E-03,       1.16250,NA,NA,"",   10.0054E-03,            0.,       1.16269,   5.41003E-06,       567.843
C:/ALETube/PressureUpdate/LargeStep/DeformErode/JobErode.odb,Step-1,Increment      3: Step Time =,    30.00,"TUBE-1",         15257,   7.07107E-03,   7.07107E-03,       1.16250,NA,NA,"",   10.0054E-03,            0.,       1.16269,   5.40986E-06,       568.133
C:/ALETube/PressureUpdate/LargeStep/DeformErode/JobErode.odb,Step-1,Increment      3: Step Time =,    30.00,"TUBE-1",         15455,   5.87785E-03,   8.09017E-03,       1.17500,NA,NA,"",   10.0055E-03,            0.,       1.17518,   5.46835E-06,       573.962
C:/ALETube/PressureUpdate/LargeStep/DeformErode/JobErode.odb,Step-1,Increment      3: Step Time =,    30.00,"TUBE-1",         15421,   7.07107E-03,   7.07107E-03,       1.17500,NA,NA,"",   10.0055E-03,            0.,       1.17518,   5.46818E-06,       574.255
C:/ALETube/PressureUpdate/LargeStep/DeformErode/JobErode.odb,Step-1,Increment      3: Step Time =,    30.00,"TUBE-1",         15619,   5.87785E-03,   8.09017E-03,        1.1875,NA,NA,"",   10.0055E-03,            0.,       1.18768,   5.52667E-06,       580.081
C:/ALETube/PressureUpdate/LargeStep/DeformErode/JobErode.odb,Step-1,Increment      3: Step Time =,    30.00,"TUBE-1",         15585,   7.07107E-03,   7.07107E-03,        1.1875,NA,NA,"",   10.0055E-03,            0.,       1.18768,   5.52650E-06,       580.378
C:/ALETube/PressureUpdate/LargeStep/DeformErode/JobErode.odb,Step-1,Increment      3: Step Time =,    30.00,"TUBE-1",         15749,   7.07107E-03,   7.07107E-03,       1.20000,NA,NA,"",   10.0056E-03,            0.,       1.20018,   5.58482E-06,       586.501
C:/ALETube/PressureUpdate/LargeStep/DeformErode/JobErode.odb,Step-1,Increment      3: Step Time =,    30.00,"TUBE-1",         15783,   5.87785E-03,   8.09017E-03,       1.20000,NA,NA,"",   10.0056E-03,            0.,       1.20018,   5.58500E-06,       586.201
C:/ALETube/PressureUpdate/LargeStep/DeformErode/JobErode.odb,Step-1,Increment      3: Step Time =,    30.00,"TUBE-1",         15947,   5.87785E-03,   8.09017E-03,       1.21250,NA,NA,"",   10.0056E-03,  -867.362E-21,       1.21268,   5.64333E-06,       592.320
C:/ALETube/PressureUpdate/LargeStep/DeformErode/JobErode.odb,Step-1,Increment      3: Step Time =,    30.00,"TUBE-1",         15913,   7.07107E-03,   7.07107E-03,       1.21250,NA,NA,"",   10.0056E-03,            0.,       1.21268,   5.64315E-06,       592.624
C:/ALETube/PressureUpdate/LargeStep/DeformErode/JobErode.odb,Step-1,Increment      3: Step Time =,    30.00,"TUBE-1",         16111,   5.87785E-03,   8.09017E-03,       1.22500,NA,NA,"",   10.0057E-03,   867.362E-21,       1.22518,   5.70166E-06,       598.440
C:/ALETube/PressureUpdate/LargeStep/DeformErode/JobErode.odb,Step-1,Increment      3: Step Time =,    30.00,"TUBE-1",         16077,   7.07107E-03,   7.07107E-03,       1.22500,NA,NA,"",   10.0057E-03,            0.,       1.22518,   5.70148E-06,       598.747
C:/ALETube/PressureUpdate/LargeStep/DeformErode/JobErode.odb,Step-1,Increment      3: Step Time =,    30.00,"TUBE-1",         16275,   5.87785E-03,   8.09017E-03,       1.23750,NA,NA,"",   10.0058E-03,  -867.362E-21,       1.23767,   5.76000E-06,       604.561
C:/ALETube/PressureUpdate/LargeStep/DeformErode/JobErode.odb,Step-1,Increment      3: Step Time =,    30.00,"TUBE-1",         16241,   7.07107E-03,   7.07107E-03,       1.23750,NA,NA,"",   10.0058E-03,            0.,       1.23767,   5.75981E-06,       604.870
C:/ALETube/PressureUpdate/LargeStep/DeformErode/JobErode.odb,Step-1,Increment      3: Step Time =,    30.00,"TUBE-1",         16439,   5.87785E-03,   8.09017E-03,          1.25,NA,NA,"",   10.0058E-03,   867.362E-21,       1.25017,   5.81834E-06,       610.681
C:/ALETube/PressureUpdate/LargeStep/DeformErode/JobErode.odb,Step-1,Increment      3: Step Time =,    30.00,"TUBE-1",         16405,   7.07107E-03,   7.07107E-03,          1.25,NA,NA,"",   10.0058E-03,            0.,       1.25017,   5.81815E-06,       610.994
C:/ALETube/PressureUpdate/LargeStep/DeformErode/JobErode.odb,Step-1,Increment      3: Step Time =,    30.00,"TUBE-1",         16569,   7.07107E-03,   7.07107E-03,       1.26250,NA,NA,"",   10.0059E-03,            0.,       1.26267,   5.87649E-06,       617.118
C:/ALETube/PressureUpdate/LargeStep/DeformErode/JobErode.odb,Step-1,Increment      3: Step Time =,    30.00,"TUBE-1",         16603,   5.87785E-03,   8.09017E-03,       1.26250,NA,NA,"",   10.0059E-03,            0.,       1.26267,   5.87668E-06,       616.802
C:/ALETube/PressureUpdate/LargeStep/DeformErode/JobErode.odb,Step-1,Increment      3: Step Time =,    30.00,"TUBE-1",         16767,   5.87785E-03,   8.09017E-03,       1.27500,NA,NA,"",   10.0059E-03,            0.,       1.27517,   5.93502E-06,       622.924
C:/ALETube/PressureUpdate/LargeStep/DeformErode/JobErode.odb,Step-1,Increment      3: Step Time =,    30.00,"TUBE-1",         16733,   7.07107E-03,   7.07107E-03,       1.27500,NA,NA,"",   10.0059E-03,            0.,       1.27517,   5.93483E-06,       623.242
C:/ALETube/PressureUpdate/LargeStep/DeformErode/JobErode.odb,Step-1,Increment      3: Step Time =,    30.00,"TUBE-1",         16931,   5.87785E-03,   8.09017E-03,       1.28750,NA,NA,"",   10.0060E-03,            0.,       1.28766,   5.99337E-06,       629.045
C:/ALETube/PressureUpdate/LargeStep/DeformErode/JobErode.odb,Step-1,Increment      3: Step Time =,    30.00,"TUBE-1",         16897,   7.07107E-03,   7.07107E-03,       1.28750,NA,NA,"",   10.0060E-03,            0.,       1.28766,   5.99318E-06,       629.367
C:/ALETube/PressureUpdate/LargeStep/DeformErode/JobErode.odb,Step-1,Increment      3: Step Time =,    30.00,"TUBE-1",         17095,   5.87785E-03,   8.09017E-03,       1.30000,NA,NA,"",   10.0061E-03,  -867.362E-21,       1.30016,   6.05172E-06,       635.167
C:/ALETube/PressureUpdate/LargeStep/DeformErode/JobErode.odb,Step-1,Increment      3: Step Time =,    30.00,"TUBE-1",         17061,   7.07107E-03,   7.07107E-03,       1.30000,NA,NA,"",   10.0061E-03,            0.,       1.30016,   6.05153E-06,       635.492
C:/ALETube/PressureUpdate/LargeStep/DeformErode/JobErode.odb,Step-1,Increment      3: Step Time =,    30.00,"TUBE-1",         17259,   5.87785E-03,   8.09017E-03,        1.3125,NA,NA,"",   10.0061E-03,            0.,       1.31266,   6.11008E-06,       641.289
C:/ALETube/PressureUpdate/LargeStep/DeformErode/JobErode.odb,Step-1,Increment      3: Step Time =,    30.00,"TUBE-1",         17225,   7.07107E-03,   7.07107E-03,        1.3125,NA,NA,"",   10.0061E-03,            0.,       1.31266,   6.10988E-06,       641.617
C:/ALETube/PressureUpdate/LargeStep/DeformErode/JobErode.odb,Step-1,Increment      3: Step Time =,    30.00,"TUBE-1",         17389,   7.07107E-03,   7.07107E-03,       1.32500,NA,NA,"",   10.0062E-03,            0.,       1.32516,   6.16824E-06,       647.743
C:/ALETube/PressureUpdate/LargeStep/DeformErode/JobErode.odb,Step-1,Increment      3: Step Time =,    30.00,"TUBE-1",         17423,   5.87785E-03,   8.09017E-03,       1.32500,NA,NA,"",   10.0062E-03,            0.,       1.32516,   6.16844E-06,       647.411
C:/ALETube/PressureUpdate/LargeStep/DeformErode/JobErode.odb,Step-1,Increment      3: Step Time =,    30.00,"TUBE-1",         17587,   5.87785E-03,   8.09017E-03,       1.33750,NA,NA,"",   10.0062E-03,  -867.362E-21,       1.33765,   6.22680E-06,       653.534
C:/ALETube/PressureUpdate/LargeStep/DeformErode/JobErode.odb,Step-1,Increment      3: Step Time =,    30.00,"TUBE-1",         17553,   7.07107E-03,   7.07107E-03,       1.33750,NA,NA,"",   10.0062E-03,            0.,       1.33765,   6.22659E-06,       653.869
C:/ALETube/PressureUpdate/LargeStep/DeformErode/JobErode.odb,Step-1,Increment      3: Step Time =,    30.00,"TUBE-1",         17751,   5.87785E-03,   8.09017E-03,       1.35000,NA,NA,"",   10.0063E-03,  -867.362E-21,       1.35015,   6.28516E-06,       659.657
C:/ALETube/PressureUpdate/LargeStep/DeformErode/JobErode.odb,Step-1,Increment      3: Step Time =,    30.00,"TUBE-1",         17717,   7.07107E-03,   7.07107E-03,       1.35000,NA,NA,"",   10.0063E-03,            0.,       1.35015,   6.28496E-06,       659.995
C:/ALETube/PressureUpdate/LargeStep/DeformErode/JobErode.odb,Step-1,Increment      3: Step Time =,    30.00,"TUBE-1",         17915,   5.87785E-03,   8.09017E-03,       1.36250,NA,NA,"",   10.0063E-03,            0.,       1.36265,   6.34353E-06,       665.780
C:/ALETube/PressureUpdate/LargeStep/DeformErode/JobErode.odb,Step-1,Increment      3: Step Time =,    30.00,"TUBE-1",         17881,   7.07107E-03,   7.07107E-03,       1.36250,NA,NA,"",   10.0063E-03,            0.,       1.36265,   6.34332E-06,       666.121
C:/ALETube/PressureUpdate/LargeStep/DeformErode/JobErode.odb,Step-1,Increment      3: Step Time =,    30.00,"TUBE-1",         18079,   5.87785E-03,   8.09017E-03,         1.375,NA,NA,"",   10.0064E-03,            0.,       1.37515,   6.40190E-06,       671.903
C:/ALETube/PressureUpdate/LargeStep/DeformErode/JobErode.odb,Step-1,Increment      3: Step Time =,    30.00,"TUBE-1",         18045,   7.07107E-03,   7.07107E-03,         1.375,NA,NA,"",   10.0064E-03,            0.,       1.37515,   6.40169E-06,       672.247
C:/ALETube/PressureUpdate/LargeStep/DeformErode/JobErode.odb,Step-1,Increment      3: Step Time =,    30.00,"TUBE-1",         18209,   7.07107E-03,   7.07107E-03,       1.38750,NA,NA,"",   10.0065E-03,            0.,       1.38765,   6.46006E-06,       678.374
C:/ALETube/PressureUpdate/LargeStep/DeformErode/JobErode.odb,Step-1,Increment      3: Step Time =,    30.00,"TUBE-1",         18243,   5.87785E-03,   8.09017E-03,       1.38750,NA,NA,"",   10.0065E-03,            0.,       1.38765,   6.46027E-06,       678.027
C:/ALETube/PressureUpdate/LargeStep/DeformErode/JobErode.odb,Step-1,Increment      3: Step Time =,    30.00,"TUBE-1",         18407,   5.87785E-03,   8.09017E-03,       1.40000,NA,NA,"",   10.0065E-03,  -867.362E-21,       1.40014,   6.51865E-06,       684.151
C:/ALETube/PressureUpdate/LargeStep/DeformErode/JobErode.odb,Step-1,Increment      3: Step Time =,    30.00,"TUBE-1",         18373,   7.07107E-03,   7.07107E-03,       1.40000,NA,NA,"",   10.0065E-03,            0.,       1.40014,   6.51844E-06,       684.502
C:/ALETube/PressureUpdate/LargeStep/DeformErode/JobErode.odb,Step-1,Increment      3: Step Time =,    30.00,"TUBE-1",         18571,   5.87785E-03,   8.09017E-03,       1.41250,NA,NA,"",   10.0066E-03,            0.,       1.41264,   6.57703E-06,       690.276
C:/ALETube/PressureUpdate/LargeStep/DeformErode/JobErode.odb,Step-1,Increment      3: Step Time =,    30.00,"TUBE-1",         18537,   7.07107E-03,   7.07107E-03,       1.41250,NA,NA,"",   10.0066E-03,            0.,       1.41264,   6.57681E-06,       690.629
C:/ALETube/PressureUpdate/LargeStep/DeformErode/JobErode.odb,Step-1,Increment      3: Step Time =,    30.00,"TUBE-1",         18735,   5.87785E-03,   8.09017E-03,       1.42500,NA,NA,"",   10.0066E-03,            0.,       1.42514,   6.63541E-06,       696.400
C:/ALETube/PressureUpdate/LargeStep/DeformErode/JobErode.odb,Step-1,Increment      3: Step Time =,    30.00,"TUBE-1",         18701,   7.07107E-03,   7.07107E-03,       1.42500,NA,NA,"",   10.0066E-03,            0.,       1.42514,   6.63519E-06,       696.757
C:/ALETube/PressureUpdate/LargeStep/DeformErode/JobErode.odb,Step-1,Increment      3: Step Time =,    30.00,"TUBE-1",         18899,   5.87785E-03,   8.09017E-03,        1.4375,NA,NA,"",   10.0067E-03,  -867.362E-21,       1.43764,   6.69380E-06,       702.525
C:/ALETube/PressureUpdate/LargeStep/DeformErode/JobErode.odb,Step-1,Increment      3: Step Time =,    30.00,"TUBE-1",         18865,   7.07107E-03,   7.07107E-03,        1.4375,NA,NA,"",   10.0067E-03,            0.,       1.43764,   6.69358E-06,       702.885
C:/ALETube/PressureUpdate/LargeStep/DeformErode/JobErode.odb,Step-1,Increment      3: Step Time =,    30.00,"TUBE-1",         19029,   7.07107E-03,   7.07107E-03,       1.45000,NA,NA,"",   10.0068E-03,            0.,       1.45013,   6.75197E-06,       709.013
C:/ALETube/PressureUpdate/LargeStep/DeformErode/JobErode.odb,Step-1,Increment      3: Step Time =,    30.00,"TUBE-1",         19063,   5.87785E-03,   8.09017E-03,       1.45000,NA,NA,"",   10.0068E-03,            0.,       1.45013,   6.75218E-06,       708.650
C:/ALETube/PressureUpdate/LargeStep/DeformErode/JobErode.odb,Step-1,Increment      3: Step Time =,    30.00,"TUBE-1",         19227,   5.87785E-03,   8.09017E-03,       1.46250,NA,NA,"",   10.0068E-03,            0.,       1.46263,   6.81058E-06,       714.776
C:/ALETube/PressureUpdate/LargeStep/DeformErode/JobErode.odb,Step-1,Increment      3: Step Time =,    30.00,"TUBE-1",         19193,   7.07107E-03,   7.07107E-03,       1.46250,NA,NA,"",   10.0068E-03,            0.,       1.46263,   6.81036E-06,       715.142
C:/ALETube/PressureUpdate/LargeStep/DeformErode/JobErode.odb,Step-1,Increment      3: Step Time =,    30.00,"TUBE-1",         19391,   5.87785E-03,   8.09017E-03,       1.47500,NA,NA,"",   10.0069E-03,            0.,       1.47513,   6.86897E-06,       720.901
C:/ALETube/PressureUpdate/LargeStep/DeformErode/JobErode.odb,Step-1,Increment      3: Step Time =,    30.00,"TUBE-1",         19357,   7.07107E-03,   7.07107E-03,       1.47500,NA,NA,"",   10.0069E-03,            0.,       1.47513,   6.86875E-06,       721.270
C:/ALETube/PressureUpdate/LargeStep/DeformErode/JobErode.odb,Step-1,Increment      3: Step Time =,    30.00,"TUBE-1",         19555,   5.87785E-03,   8.09017E-03,       1.48750,NA,NA,"",   10.0069E-03,   867.362E-21,       1.48763,   6.92737E-06,       727.027
C:/ALETube/PressureUpdate/LargeStep/DeformErode/JobErode.odb,Step-1,Increment      3: Step Time =,    30.00,"TUBE-1",         19521,   7.07107E-03,   7.07107E-03,       1.48750,NA,NA,"",   10.0069E-03,            0.,       1.48763,   6.92715E-06,       727.400
C:/ALETube/PressureUpdate/LargeStep/DeformErode/JobErode.odb,Step-1,Increment      3: Step Time =,    30.00,"TUBE-1",         19719,   5.87785E-03,   8.09017E-03,           1.5,NA,NA,"",   10.0070E-03,            0.,       1.50012,   6.98577E-06,       733.154
C:/ALETube/PressureUpdate/LargeStep/DeformErode/JobErode.odb,Step-1,Increment      3: Step Time =,    30.00,"TUBE-1",         19685,   7.07107E-03,   7.07107E-03,           1.5,NA,NA,"",   10.0070E-03,            0.,       1.50012,   6.98555E-06,       733.529
C:/ALETube/PressureUpdate/LargeStep/DeformErode/JobErode.odb,Step-1,Increment      3: Step Time =,    30.00,"TUBE-1",         19849,   7.07107E-03,   7.07107E-03,       1.51250,NA,NA,"",   10.0070E-03,            0.,       1.51262,   7.04395E-06,       739.659
C:/ALETube/PressureUpdate/LargeStep/DeformErode/JobErode.odb,Step-1,Increment      3: Step Time =,    30.00,"TUBE-1",         19883,   5.87785E-03,   8.09017E-03,       1.51250,NA,NA,"",   10.0070E-03,            0.,       1.51262,   7.04418E-06,       739.280
C:/ALETube/PressureUpdate/LargeStep/DeformErode/JobErode.odb,Step-1,Increment      3: Step Time =,    30.00,"TUBE-1",         20047,   5.87785E-03,   8.09017E-03,       1.52500,NA,NA,"",   10.0071E-03,  -867.362E-21,       1.52512,   7.10258E-06,       745.407
C:/ALETube/PressureUpdate/LargeStep/DeformErode/JobErode.odb,Step-1,Increment      3: Step Time =,    30.00,"TUBE-1",         20013,   7.07107E-03,   7.07107E-03,       1.52500,NA,NA,"",   10.0071E-03,            0.,       1.52512,   7.10236E-06,       745.789
C:/ALETube/PressureUpdate/LargeStep/DeformErode/JobErode.odb,Step-1,Increment      3: Step Time =,    30.00,"TUBE-1",         20211,   5.87785E-03,   8.09017E-03,       1.53750,NA,NA,"",   10.0072E-03,  -867.362E-21,       1.53761,   7.16100E-06,       751.534
C:/ALETube/PressureUpdate/LargeStep/DeformErode/JobErode.odb,Step-1,Increment      3: Step Time =,    30.00,"TUBE-1",         20177,   7.07107E-03,   7.07107E-03,       1.53750,NA,NA,"",   10.0072E-03,            0.,       1.53761,   7.16076E-06,       751.919
C:/ALETube/PressureUpdate/LargeStep/DeformErode/JobErode.odb,Step-1,Increment      3: Step Time =,    30.00,"TUBE-1",         20375,   5.87785E-03,   8.09017E-03,       1.55000,NA,NA,"",   10.0072E-03,            0.,       1.55011,   7.21941E-06,       757.661
C:/ALETube/PressureUpdate/LargeStep/DeformErode/JobErode.odb,Step-1,Increment      3: Step Time =,    30.00,"TUBE-1",         20341,   7.07107E-03,   7.07107E-03,       1.55000,NA,NA,"",   10.0072E-03,            0.,       1.55011,   7.21918E-06,       758.049
C:/ALETube/PressureUpdate/LargeStep/DeformErode/JobErode.odb,Step-1,Increment      3: Step Time =,    30.00,"TUBE-1",         20539,   5.87785E-03,   8.09017E-03,        1.5625,NA,NA,"",   10.0073E-03,            0.,       1.56261,   7.27783E-06,       763.789
C:/ALETube/PressureUpdate/LargeStep/DeformErode/JobErode.odb,Step-1,Increment      3: Step Time =,    30.00,"TUBE-1",         20505,   7.07107E-03,   7.07107E-03,        1.5625,NA,NA,"",   10.0073E-03,            0.,       1.56261,   7.27759E-06,       764.180
C:/ALETube/PressureUpdate/LargeStep/DeformErode/JobErode.odb,Step-1,Increment      3: Step Time =,    30.00,"TUBE-1",         20669,   7.07107E-03,   7.07107E-03,       1.57500,NA,NA,"",   10.0073E-03,            0.,       1.57511,   7.33601E-06,       770.311
C:/ALETube/PressureUpdate/LargeStep/DeformErode/JobErode.odb,Step-1,Increment      3: Step Time =,    30.00,"TUBE-1",         20703,   5.87785E-03,   8.09017E-03,       1.57500,NA,NA,"",   10.0073E-03,            0.,       1.57511,   7.33625E-06,       769.917
C:/ALETube/PressureUpdate/LargeStep/DeformErode/JobErode.odb,Step-1,Increment      3: Step Time =,    30.00,"TUBE-1",         20867,   5.87785E-03,   8.09017E-03,       1.58750,NA,NA,"",   10.0074E-03,            0.,       1.58760,   7.39467E-06,       776.045
C:/ALETube/PressureUpdate/LargeStep/DeformErode/JobErode.odb,Step-1,Increment      3: Step Time =,    30.00,"TUBE-1",         20833,   7.07107E-03,   7.07107E-03,       1.58750,NA,NA,"",   10.0074E-03,            0.,       1.58760,   7.39443E-06,       776.443
C:/ALETube/PressureUpdate/LargeStep/DeformErode/JobErode.odb,Step-1,Increment      3: Step Time =,    30.00,"TUBE-1",         21031,   5.87785E-03,   8.09017E-03,       1.60000,NA,NA,"",   10.0075E-03,            0.,       1.60010,   7.45310E-06,       782.174
C:/ALETube/PressureUpdate/LargeStep/DeformErode/JobErode.odb,Step-1,Increment      3: Step Time =,    30.00,"TUBE-1",         20997,   7.07107E-03,   7.07107E-03,       1.60000,NA,NA,"",   10.0075E-03,            0.,       1.60010,   7.45286E-06,       782.574
C:/ALETube/PressureUpdate/LargeStep/DeformErode/JobErode.odb,Step-1,Increment      3: Step Time =,    30.00,"TUBE-1",         21195,   5.87785E-03,   8.09017E-03,       1.61250,NA,NA,"",   10.0075E-03,            0.,       1.61260,   7.51153E-06,       788.303
C:/ALETube/PressureUpdate/LargeStep/DeformErode/JobErode.odb,Step-1,Increment      3: Step Time =,    30.00,"TUBE-1",         21161,   7.07107E-03,   7.07107E-03,       1.61250,NA,NA,"",   10.0075E-03,            0.,       1.61260,   7.51128E-06,       788.706
C:/ALETube/PressureUpdate/LargeStep/DeformErode/JobErode.odb,Step-1,Increment      3: Step Time =,    30.00,"TUBE-1",         21359,   5.87785E-03,   8.09017E-03,         1.625,NA,NA,"",   10.0076E-03,            0.,       1.62510,   7.56996E-06,       794.432
C:/ALETube/PressureUpdate/LargeStep/DeformErode/JobErode.odb,Step-1,Increment      3: Step Time =,    30.00,"TUBE-1",         21325,   7.07107E-03,   7.07107E-03,         1.625,NA,NA,"",   10.0076E-03,            0.,       1.62510,   7.56972E-06,       794.839
C:/ALETube/PressureUpdate/LargeStep/DeformErode/JobErode.odb,Step-1,Increment      3: Step Time =,    30.00,"TUBE-1",         21489,   7.07107E-03,   7.07107E-03,       1.63750,NA,NA,"",   10.0076E-03,            0.,       1.63759,   7.62815E-06,       800.971
C:/ALETube/PressureUpdate/LargeStep/DeformErode/JobErode.odb,Step-1,Increment      3: Step Time =,    30.00,"TUBE-1",         21523,   5.87785E-03,   8.09017E-03,       1.63750,NA,NA,"",   10.0076E-03,  -867.362E-21,       1.63759,   7.62840E-06,       800.561
C:/ALETube/PressureUpdate/LargeStep/DeformErode/JobErode.odb,Step-1,Increment      3: Step Time =,    30.00,"TUBE-1",         21687,   5.87785E-03,   8.09017E-03,       1.65000,NA,NA,"",   10.0077E-03,            0.,       1.65009,   7.68684E-06,       806.691
C:/ALETube/PressureUpdate/LargeStep/DeformErode/JobErode.odb,Step-1,Increment      3: Step Time =,    30.00,"TUBE-1",         21653,   7.07107E-03,   7.07107E-03,       1.65000,NA,NA,"",   10.0077E-03,            0.,       1.65009,   7.68659E-06,       807.104
C:/ALETube/PressureUpdate/LargeStep/DeformErode/JobErode.odb,Step-1,Increment      3: Step Time =,    30.00,"TUBE-1",         21851,   5.87785E-03,   8.09017E-03,       1.66250,NA,NA,"",   10.0077E-03,            0.,       1.66259,   7.74528E-06,       812.821
C:/ALETube/PressureUpdate/LargeStep/DeformErode/JobErode.odb,Step-1,Increment      3: Step Time =,    30.00,"TUBE-1",         21817,   7.07107E-03,   7.07107E-03,       1.66250,NA,NA,"",   10.0077E-03,            0.,       1.66259,   7.74503E-06,       813.237
C:/ALETube/PressureUpdate/LargeStep/DeformErode/JobErode.odb,Step-1,Increment      3: Step Time =,    30.00,"TUBE-1",         22015,   5.87785E-03,   8.09017E-03,       1.67500,NA,NA,"",   10.0078E-03,   867.362E-21,       1.67508,   7.80373E-06,       818.951
C:/ALETube/PressureUpdate/LargeStep/DeformErode/JobErode.odb,Step-1,Increment      3: Step Time =,    30.00,"TUBE-1",         21981,   7.07107E-03,   7.07107E-03,       1.67500,NA,NA,"",   10.0078E-03,            0.,       1.67508,   7.80347E-06,       819.370
C:/ALETube/PressureUpdate/LargeStep/DeformErode/JobErode.odb,Step-1,Increment      3: Step Time =,    30.00,"TUBE-1",         22179,   5.87785E-03,   8.09017E-03,        1.6875,NA,NA,"",   10.0079E-03,            0.,       1.68758,   7.86218E-06,       825.081
C:/ALETube/PressureUpdate/LargeStep/DeformErode/JobErode.odb,Step-1,Increment      3: Step Time =,    30.00,"TUBE-1",         22145,   7.07107E-03,   7.07107E-03,        1.6875,NA,NA,"",   10.0079E-03,            0.,       1.68758,   7.86192E-06,       825.504
C:/ALETube/PressureUpdate/LargeStep/DeformErode/JobErode.odb,Step-1,Increment      3: Step Time =,    30.00,"TUBE-1",         22309,   7.07107E-03,   7.07107E-03,       1.70000,NA,NA,"",   10.0079E-03,            0.,       1.70008,   7.92037E-06,       831.638
C:/ALETube/PressureUpdate/LargeStep/DeformErode/JobErode.odb,Step-1,Increment      3: Step Time =,    30.00,"TUBE-1",         22343,   5.87785E-03,   8.09017E-03,       1.70000,NA,NA,"",   10.0079E-03,            0.,       1.70008,   7.92063E-06,       831.212
C:/ALETube/PressureUpdate/LargeStep/DeformErode/JobErode.odb,Step-1,Increment      3: Step Time =,    30.00,"TUBE-1",         22507,   5.87785E-03,   8.09017E-03,       1.71250,NA,NA,"",   10.0080E-03,            0.,       1.71257,   7.97908E-06,       837.343
C:/ALETube/PressureUpdate/LargeStep/DeformErode/JobErode.odb,Step-1,Increment      3: Step Time =,    30.00,"TUBE-1",         22473,   7.07107E-03,   7.07107E-03,       1.71250,NA,NA,"",   10.0080E-03,            0.,       1.71257,   7.97882E-06,       837.772
C:/ALETube/PressureUpdate/LargeStep/DeformErode/JobErode.odb,Step-1,Increment      3: Step Time =,    30.00,"TUBE-1",         22671,   5.87785E-03,   8.09017E-03,       1.72500,NA,NA,"",   10.0080E-03,            0.,       1.72507,   8.03754E-06,       843.474
C:/ALETube/PressureUpdate/LargeStep/DeformErode/JobErode.odb,Step-1,Increment      3: Step Time =,    30.00,"TUBE-1",         22637,   7.07107E-03,   7.07107E-03,       1.72500,NA,NA,"",   10.0080E-03,            0.,       1.72507,   8.03728E-06,       843.906
C:/ALETube/PressureUpdate/LargeStep/DeformErode/JobErode.odb,Step-1,Increment      3: Step Time =,    30.00,"TUBE-1",         22835,   5.87785E-03,   8.09017E-03,       1.73750,NA,NA,"",   10.0081E-03,   867.362E-21,       1.73757,   8.09600E-06,       849.606
C:/ALETube/PressureUpdate/LargeStep/DeformErode/JobErode.odb,Step-1,Increment      3: Step Time =,    30.00,"TUBE-1",         22801,   7.07107E-03,   7.07107E-03,       1.73750,NA,NA,"",   10.0081E-03,            0.,       1.73757,   8.09573E-06,       850.041
C:/ALETube/PressureUpdate/LargeStep/DeformErode/JobErode.odb,Step-1,Increment      3: Step Time =,    30.00,"TUBE-1",         22999,   5.87785E-03,   8.09017E-03,          1.75,NA,NA,"",   10.0082E-03,            0.,       1.75007,   8.15449E-06,       855.739
C:/ALETube/PressureUpdate/LargeStep/DeformErode/JobErode.odb,Step-1,Increment      3: Step Time =,    30.00,"TUBE-1",         22965,   7.07107E-03,   7.07107E-03,          1.75,NA,NA,"",   10.0082E-03,            0.,       1.75007,   8.15422E-06,       856.177
C:/ALETube/PressureUpdate/LargeStep/DeformErode/JobErode.odb,Step-1,Increment      3: Step Time =,    30.00,"TUBE-1",         23129,   7.07107E-03,   7.07107E-03,       1.76250,NA,NA,"",   10.0082E-03,            0.,       1.76256,   8.21264E-06,       862.311
C:/ALETube/PressureUpdate/LargeStep/DeformErode/JobErode.odb,Step-1,Increment      3: Step Time =,    30.00,"TUBE-1",         23163,   5.87785E-03,   8.09017E-03,       1.76250,NA,NA,"",   10.0082E-03,  -867.362E-21,       1.76256,   8.21290E-06,       861.870
C:/ALETube/PressureUpdate/LargeStep/DeformErode/JobErode.odb,Step-1,Increment      3: Step Time =,    30.00,"TUBE-1",         23327,   5.87785E-03,   8.09017E-03,       1.77500,NA,NA,"",   10.0083E-03,  -867.362E-21,       1.77506,   8.27127E-06,       867.988
C:/ALETube/PressureUpdate/LargeStep/DeformErode/JobErode.odb,Step-1,Increment      3: Step Time =,    30.00,"TUBE-1",         23293,   7.07107E-03,   7.07107E-03,       1.77500,NA,NA,"",   10.0083E-03,            0.,       1.77506,   8.27101E-06,       868.433
C:/ALETube/PressureUpdate/LargeStep/DeformErode/JobErode.odb,Step-1,Increment      3: Step Time =,    30.00,"TUBE-1",         23491,   5.87785E-03,   8.09017E-03,       1.78750,NA,NA,"",   10.0083E-03,            0.,       1.78756,   8.33078E-06,       874.210
C:/ALETube/PressureUpdate/LargeStep/DeformErode/JobErode.odb,Step-1,Increment      3: Step Time =,    30.00,"TUBE-1",         23457,   7.07107E-03,   7.07107E-03,       1.78750,NA,NA,"",   10.0083E-03,            0.,       1.78756,   8.33051E-06,       874.658
C:/ALETube/PressureUpdate/LargeStep/DeformErode/JobErode.odb,Step-1,Increment      3: Step Time =,    30.00,"TUBE-1",         23655,   5.87785E-03,   8.09017E-03,       1.80000,NA,NA,"",   10.0084E-03,  -867.362E-21,       1.80005,   8.38663E-06,       880.038
C:/ALETube/PressureUpdate/LargeStep/DeformErode/JobErode.odb,Step-1,Increment      3: Step Time =,    30.00,"TUBE-1",         23621,   7.07107E-03,   7.07107E-03,       1.80000,NA,NA,"",   10.0084E-03,            0.,       1.80005,   8.38636E-06,       880.489
C:/ALETube/PressureUpdate/LargeStep/DeformErode/JobErode.odb,Step-1,Increment      3: Step Time =,    30.00,"TUBE-1",         23819,   5.87785E-03,   8.09017E-03,        1.8125,NA,NA,"",   10.0084E-03,            0.,       1.81255,   8.43311E-06,       885.029
C:/ALETube/PressureUpdate/LargeStep/DeformErode/JobErode.odb,Step-1,Increment      3: Step Time =,    30.00,"TUBE-1",         23785,   7.07107E-03,   7.07107E-03,        1.8125,NA,NA,"",   10.0084E-03,            0.,       1.81255,   8.43284E-06,       885.482
C:/ALETube/PressureUpdate/LargeStep/DeformErode/JobErode.odb,Step-1,Increment      3: Step Time =,    30.00,"TUBE-1",         23949,   7.07107E-03,   7.07107E-03,       1.82500,NA,NA,"",   10.0085E-03,            0.,       1.82505,   8.49218E-06,       891.645
C:/ALETube/PressureUpdate/LargeStep/DeformErode/JobErode.odb,Step-1,Increment      3: Step Time =,    30.00,"TUBE-1",         23983,   5.87785E-03,   8.09017E-03,       1.82500,NA,NA,"",   10.0085E-03,            0.,       1.82505,   8.49246E-06,       891.188
C:/ALETube/PressureUpdate/LargeStep/DeformErode/JobErode.odb,Step-1,Increment      3: Step Time =,    30.00,"TUBE-1",         24147,   5.87785E-03,   8.09017E-03,       1.83750,NA,NA,"",   10.0086E-03,            0.,       1.83754,   8.55172E-06,       897.400
C:/ALETube/PressureUpdate/LargeStep/DeformErode/JobErode.odb,Step-1,Increment      3: Step Time =,    30.00,"TUBE-1",         24113,   7.07107E-03,   7.07107E-03,       1.83750,NA,NA,"",   10.0086E-03,            0.,       1.83754,   8.55144E-06,       897.860
C:/ALETube/PressureUpdate/LargeStep/DeformErode/JobErode.odb,Step-1,Increment      3: Step Time =,    30.00,"TUBE-1",         24311,   5.87785E-03,   8.09017E-03,       1.85000,NA,NA,"",   10.0086E-03,            0.,       1.85004,   8.60989E-06,       903.499
C:/ALETube/PressureUpdate/LargeStep/DeformErode/JobErode.odb,Step-1,Increment      3: Step Time =,    30.00,"TUBE-1",         24277,   7.07107E-03,   7.07107E-03,       1.85000,NA,NA,"",   10.0086E-03,            0.,       1.85004,   8.60961E-06,       903.962
C:/ALETube/PressureUpdate/LargeStep/DeformErode/JobErode.odb,Step-1,Increment      3: Step Time =,    30.00,"TUBE-1",         24475,   5.87785E-03,   8.09017E-03,       1.86250,NA,NA,"",   10.0087E-03,            0.,       1.86254,   8.66842E-06,       909.642
C:/ALETube/PressureUpdate/LargeStep/DeformErode/JobErode.odb,Step-1,Increment      3: Step Time =,    30.00,"TUBE-1",         24441,   7.07107E-03,   7.07107E-03,       1.86250,NA,NA,"",   10.0087E-03,            0.,       1.86254,   8.66814E-06,       910.108
C:/ALETube/PressureUpdate/LargeStep/DeformErode/JobErode.odb,Step-1,Increment      3: Step Time =,    30.00,"TUBE-1",         24639,   5.87785E-03,   8.09017E-03,         1.875,NA,NA,"",   10.0087E-03,            0.,       1.87503,   8.72693E-06,       915.775
C:/ALETube/PressureUpdate/LargeStep/DeformErode/JobErode.odb,Step-1,Increment      3: Step Time =,    30.00,"TUBE-1",         24605,   7.07107E-03,   7.07107E-03,         1.875,NA,NA,"",   10.0087E-03,            0.,       1.87503,   8.72665E-06,       916.244
C:/ALETube/PressureUpdate/LargeStep/DeformErode/JobErode.odb,Step-1,Increment      3: Step Time =,    30.00,"TUBE-1",         24769,   7.07107E-03,   7.07107E-03,       1.88750,NA,NA,"",   10.0088E-03,            0.,       1.88753,   8.78513E-06,       922.383
C:/ALETube/PressureUpdate/LargeStep/DeformErode/JobErode.odb,Step-1,Increment      3: Step Time =,    30.00,"TUBE-1",         24803,   5.87785E-03,   8.09017E-03,       1.88750,NA,NA,"",   10.0088E-03,            0.,       1.88753,   8.78542E-06,       921.911
C:/ALETube/PressureUpdate/LargeStep/DeformErode/JobErode.odb,Step-1,Increment      3: Step Time =,    30.00,"TUBE-1",         24967,   5.87785E-03,   8.09017E-03,       1.90000,NA,NA,"",   10.0088E-03,            0.,       1.90003,   8.84392E-06,       928.045
C:/ALETube/PressureUpdate/LargeStep/DeformErode/JobErode.odb,Step-1,Increment      3: Step Time =,    30.00,"TUBE-1",         24933,   7.07107E-03,   7.07107E-03,       1.90000,NA,NA,"",   10.0088E-03,            0.,       1.90003,   8.84364E-06,       928.521
C:/ALETube/PressureUpdate/LargeStep/DeformErode/JobErode.odb,Step-1,Increment      3: Step Time =,    30.00,"TUBE-1",         25131,   5.87785E-03,   8.09017E-03,       1.91250,NA,NA,"",   10.0089E-03,            0.,       1.91252,   8.90243E-06,       934.182
C:/ALETube/PressureUpdate/LargeStep/DeformErode/JobErode.odb,Step-1,Increment      3: Step Time =,    30.00,"TUBE-1",         25097,   7.07107E-03,   7.07107E-03,       1.91250,NA,NA,"",   10.0089E-03,            0.,       1.91252,   8.90214E-06,       934.660
C:/ALETube/PressureUpdate/LargeStep/DeformErode/JobErode.odb,Step-1,Increment      3: Step Time =,    30.00,"TUBE-1",         25295,   5.87785E-03,   8.09017E-03,       1.92500,NA,NA,"",   10.0090E-03,            0.,       1.92502,   8.96094E-06,       940.316
C:/ALETube/PressureUpdate/LargeStep/DeformErode/JobErode.odb,Step-1,Increment      3: Step Time =,    30.00,"TUBE-1",         25261,   7.07107E-03,   7.07107E-03,       1.92500,NA,NA,"",   10.0090E-03,            0.,       1.92502,   8.96065E-06,       940.798
C:/ALETube/PressureUpdate/LargeStep/DeformErode/JobErode.odb,Step-1,Increment      3: Step Time =,    30.00,"TUBE-1",         25459,   5.87785E-03,   8.09017E-03,        1.9375,NA,NA,"",   10.0090E-03,            0.,       1.93752,   9.01941E-06,       946.453
C:/ALETube/PressureUpdate/LargeStep/DeformErode/JobErode.odb,Step-1,Increment      3: Step Time =,    30.00,"TUBE-1",         25425,   7.07107E-03,   7.07107E-03,        1.9375,NA,NA,"",   10.0090E-03,            0.,       1.93752,   9.01913E-06,       946.937
C:/ALETube/PressureUpdate/LargeStep/DeformErode/JobErode.odb,Step-1,Increment      3: Step Time =,    30.00,"TUBE-1",         25589,   7.07107E-03,   7.07107E-03,       1.95000,NA,NA,"",   10.0091E-03,            0.,       1.95001,   9.07778E-06,       953.083
C:/ALETube/PressureUpdate/LargeStep/DeformErode/JobErode.odb,Step-1,Increment      3: Step Time =,    30.00,"TUBE-1",         25623,   5.87785E-03,   8.09017E-03,       1.95000,NA,NA,"",   10.0091E-03,            0.,       1.95001,   9.07809E-06,       952.592
C:/ALETube/PressureUpdate/LargeStep/DeformErode/JobErode.odb,Step-1,Increment      3: Step Time =,    30.00,"TUBE-1",         25787,   5.87785E-03,   8.09017E-03,       1.96250,NA,NA,"",   10.0091E-03,            0.,       1.96251,   9.13637E-06,       958.733
C:/ALETube/PressureUpdate/LargeStep/DeformErode/JobErode.odb,Step-1,Increment      3: Step Time =,    30.00,"TUBE-1",         25753,   7.07107E-03,   7.07107E-03,       1.96250,NA,NA,"",   10.0091E-03,            0.,       1.96251,   9.13609E-06,       959.218
C:/ALETube/PressureUpdate/LargeStep/DeformErode/JobErode.odb,Step-1,Increment      3: Step Time =,    30.00,"TUBE-1",         25951,   5.87785E-03,   8.09017E-03,       1.97500,NA,NA,"",   10.0092E-03,            0.,       1.97501,   9.19393E-06,       964.754
C:/ALETube/PressureUpdate/LargeStep/DeformErode/JobErode.odb,Step-1,Increment      3: Step Time =,    30.00,"TUBE-1",         25917,   7.07107E-03,   7.07107E-03,       1.97500,NA,NA,"",   10.0092E-03,            0.,       1.97501,   9.19360E-06,       965.259
C:/ALETube/PressureUpdate/LargeStep/DeformErode/JobErode.odb,Step-1,Increment      3: Step Time =,    30.00,"TUBE-1",         26115,   5.87785E-03,   8.09017E-03,       1.98750,NA,NA,"",   10.0093E-03,            0.,       1.98750,   9.25881E-06,       971.416
C:/ALETube/PressureUpdate/LargeStep/DeformErode/JobErode.odb,Step-1,Increment      3: Step Time =,    30.00,"TUBE-1",         26081,   7.07107E-03,   7.07107E-03,       1.98750,NA,NA,"",   10.0093E-03,            0.,       1.98750,   9.25853E-06,       971.917
C:/ALETube/PressureUpdate/LargeStep/DeformErode/JobErode.odb,Step-1,Increment      3: Step Time =,    30.00,"TUBE-1",         26279,   5.87785E-03,   8.09017E-03,            2.,NA,NA,"",   10.0093E-03,  -867.362E-21,            2.,   9.30575E-06,       975.110
C:/ALETube/PressureUpdate/LargeStep/DeformErode/JobErode.odb,Step-1,Increment      3: Step Time =,    30.00,"TUBE-1",         26245,   7.07107E-03,   7.07107E-03,            2.,NA,NA,"",   10.0093E-03,            0.,            2.,   9.30554E-06,       976.324
C:/ALETube/PressureUpdate/LargeStep/DeformErode/JobErode.odb,Step-1,Increment      4: Step Time =,    40.00,"TUBE-1",            39,   5.87785E-03,   8.09017E-03,            0.,NA,NA,"",   9.99996E-03,            0.,   560.533E-06,  -39.3425E-09,       2.57826
C:/ALETube/PressureUpdate/LargeStep/DeformErode/JobErode.odb,Step-1,Increment      4: Step Time =,    40.00,"TUBE-1",             5,   7.07107E-03,   7.07107E-03,            0.,NA,NA,"",   9.99996E-03,            0.,   560.533E-06,  -39.1666E-09,       2.57943
C:/ALETube/PressureUpdate/LargeStep/DeformErode/JobErode.odb,Step-1,Increment      4: Step Time =,    40.00,"TUBE-1",           203,   5.87785E-03,   8.09017E-03,   12.5000E-03,NA,NA,"",   10.0001E-03,  -867.362E-21,   13.0618E-03,   127.461E-09,       12.6204
C:/ALETube/PressureUpdate/LargeStep/DeformErode/JobErode.odb,Step-1,Increment      4: Step Time =,    40.00,"TUBE-1",           169,   7.07107E-03,   7.07107E-03,   12.5000E-03,NA,NA,"",   10.0001E-03,            0.,   13.0608E-03,   127.480E-09,       12.6267
C:/ALETube/PressureUpdate/LargeStep/DeformErode/JobErode.odb,Step-1,Increment      4: Step Time =,    40.00,"TUBE-1",           333,   7.07107E-03,   7.07107E-03,   25.0000E-03,NA,NA,"",   10.0002E-03,            0.,   25.5605E-03,   231.447E-09,       24.7129
C:/ALETube/PressureUpdate/LargeStep/DeformErode/JobErode.odb,Step-1,Increment      4: Step Time =,    40.00,"TUBE-1",           367,   5.87785E-03,   8.09017E-03,   25.0000E-03,NA,NA,"",   10.0002E-03,  -867.362E-21,   25.5605E-03,   231.407E-09,       24.6989
C:/ALETube/PressureUpdate/LargeStep/DeformErode/JobErode.odb,Step-1,Increment      4: Step Time =,    40.00,"TUBE-1",           531,   5.87785E-03,   8.09017E-03,   37.5000E-03,NA,NA,"",   10.0003E-03,            0.,   38.0604E-03,   349.684E-09,       36.5891
C:/ALETube/PressureUpdate/LargeStep/DeformErode/JobErode.odb,Step-1,Increment      4: Step Time =,    40.00,"TUBE-1",           497,   7.07107E-03,   7.07107E-03,   37.5000E-03,NA,NA,"",   10.0003E-03,            0.,   38.0604E-03,   349.742E-09,       36.6118
C:/ALETube/PressureUpdate/LargeStep/DeformErode/JobErode.odb,Step-1,Increment      4: Step Time =,    40.00,"TUBE-1",           695,   5.87785E-03,   8.09017E-03,   50.0000E-03,NA,NA,"",   10.0005E-03,  -867.362E-21,   50.5602E-03,   465.824E-09,       49.0065
C:/ALETube/PressureUpdate/LargeStep/DeformErode/JobErode.odb,Step-1,Increment      4: Step Time =,    40.00,"TUBE-1",           661,   7.07107E-03,   7.07107E-03,   50.0000E-03,NA,NA,"",   10.0005E-03,            0.,   50.5602E-03,   465.902E-09,       49.0362
C:/ALETube/PressureUpdate/LargeStep/DeformErode/JobErode.odb,Step-1,Increment      4: Step Time =,    40.00,"TUBE-1",           825,   7.07107E-03,   7.07107E-03,      62.5E-03,NA,NA,"",   10.0006E-03,            0.,   63.0600E-03,   582.854E-09,       61.2034
C:/ALETube/PressureUpdate/LargeStep/DeformErode/JobErode.odb,Step-1,Increment      4: Step Time =,    40.00,"TUBE-1",           859,   5.87785E-03,   8.09017E-03,      62.5E-03,NA,NA,"",   10.0006E-03,            0.,   63.0600E-03,   582.759E-09,       61.1660
C:/ALETube/PressureUpdate/LargeStep/DeformErode/JobErode.odb,Step-1,Increment      4: Step Time =,    40.00,"TUBE-1",          1023,   5.87785E-03,   8.09017E-03,   75.0000E-03,NA,NA,"",   10.0007E-03,            0.,   75.5598E-03,   699.050E-09,       73.4300
C:/ALETube/PressureUpdate/LargeStep/DeformErode/JobErode.odb,Step-1,Increment      4: Step Time =,    40.00,"TUBE-1",           989,   7.07107E-03,   7.07107E-03,   75.0000E-03,NA,NA,"",   10.0007E-03,            0.,   75.5598E-03,   699.165E-09,       73.4746
C:/ALETube/PressureUpdate/LargeStep/DeformErode/JobErode.odb,Step-1,Increment      4: Step Time =,    40.00,"TUBE-1",          1187,   5.87785E-03,   8.09017E-03,   87.5000E-03,NA,NA,"",   10.0008E-03,            0.,   88.0595E-03,   815.740E-09,       85.6532
C:/ALETube/PressureUpdate/LargeStep/DeformErode/JobErode.odb,Step-1,Increment      4: Step Time =,    40.00,"TUBE-1",          1153,   7.07107E-03,   7.07107E-03,   87.5000E-03,NA,NA,"",   10.0008E-03,            0.,   88.0595E-03,   815.873E-09,       85.7053
C:/ALETube/PressureUpdate/LargeStep/DeformErode/JobErode.odb,Step-1,Increment      4: Step Time =,    40.00,"TUBE-1",          1351,   5.87785E-03,   8.09017E-03,   100.000E-03,NA,NA,"",   10.0009E-03,            0.,   100.559E-03,   932.247E-09,       97.8965
C:/ALETube/PressureUpdate/LargeStep/DeformErode/JobErode.odb,Step-1,Increment      4: Step Time =,    40.00,"TUBE-1",          1317,   7.07107E-03,   7.07107E-03,   100.000E-03,NA,NA,"",   10.0009E-03,            0.,   100.559E-03,   932.399E-09,       97.9561
C:/ALETube/PressureUpdate/LargeStep/DeformErode/JobErode.odb,Step-1,Increment      4: Step Time =,    40.00,"TUBE-1",          1515,   5.87785E-03,   8.09017E-03,   112.500E-03,NA,NA,"",   10.0010E-03,            0.,   113.059E-03,   1.04884E-06,       110.131
C:/ALETube/PressureUpdate/LargeStep/DeformErode/JobErode.odb,Step-1,Increment      4: Step Time =,    40.00,"TUBE-1",          1481,   7.07107E-03,   7.07107E-03,   112.500E-03,NA,NA,"",   10.0010E-03,            0.,   113.059E-03,   1.04901E-06,       110.198
C:/ALETube/PressureUpdate/LargeStep/DeformErode/JobErode.odb,Step-1,Increment      4: Step Time =,    40.00,"TUBE-1",          1645,   7.07107E-03,   7.07107E-03,      125.E-03,NA,NA,"",   10.0012E-03,            0.,   125.558E-03,   1.16559E-06,       122.445
C:/ALETube/PressureUpdate/LargeStep/DeformErode/JobErode.odb,Step-1,Increment      4: Step Time =,    40.00,"TUBE-1",          1679,   5.87785E-03,   8.09017E-03,      125.E-03,NA,NA,"",   10.0012E-03,            0.,   125.558E-03,   1.16540E-06,       122.370
C:/ALETube/PressureUpdate/LargeStep/DeformErode/JobErode.odb,Step-1,Increment      4: Step Time =,    40.00,"TUBE-1",          1843,   5.87785E-03,   8.09017E-03,   137.500E-03,NA,NA,"",   10.0013E-03,            0.,   138.058E-03,   1.28198E-06,       134.607
C:/ALETube/PressureUpdate/LargeStep/DeformErode/JobErode.odb,Step-1,Increment      4: Step Time =,    40.00,"TUBE-1",          1809,   7.07107E-03,   7.07107E-03,   137.500E-03,NA,NA,"",   10.0013E-03,            0.,   138.058E-03,   1.28219E-06,       134.689
C:/ALETube/PressureUpdate/LargeStep/DeformErode/JobErode.odb,Step-1,Increment      4: Step Time =,    40.00,"TUBE-1",          2007,   5.87785E-03,   8.09017E-03,   150.000E-03,NA,NA,"",   10.0014E-03,            0.,   150.557E-03,   1.39856E-06,       146.846
C:/ALETube/PressureUpdate/LargeStep/DeformErode/JobErode.odb,Step-1,Increment      4: Step Time =,    40.00,"TUBE-1",          1973,   7.07107E-03,   7.07107E-03,   150.000E-03,NA,NA,"",   10.0014E-03,            0.,   150.557E-03,   1.39878E-06,       146.936
C:/ALETube/PressureUpdate/LargeStep/DeformErode/JobErode.odb,Step-1,Increment      4: Step Time =,    40.00,"TUBE-1",          2171,   5.87785E-03,   8.09017E-03,   162.500E-03,NA,NA,"",   10.0015E-03,            0.,   163.057E-03,   1.51514E-06,       159.085
C:/ALETube/PressureUpdate/LargeStep/DeformErode/JobErode.odb,Step-1,Increment      4: Step Time =,    40.00,"TUBE-1",          2137,   7.07107E-03,   7.07107E-03,   162.500E-03,NA,NA,"",   10.0015E-03,            0.,   163.057E-03,   1.51539E-06,       159.182
C:/ALETube/PressureUpdate/LargeStep/DeformErode/JobErode.odb,Step-1,Increment      4: Step Time =,    40.00,"TUBE-1",          2335,   5.87785E-03,   8.09017E-03,   175.000E-03,NA,NA,"",   10.0016E-03,  -867.362E-21,   175.556E-03,   1.63173E-06,       171.324
C:/ALETube/PressureUpdate/LargeStep/DeformErode/JobErode.odb,Step-1,Increment      4: Step Time =,    40.00,"TUBE-1",          2301,   7.07107E-03,   7.07107E-03,   175.000E-03,NA,NA,"",   10.0016E-03,            0.,   175.556E-03,   1.63199E-06,       171.429
C:/ALETube/PressureUpdate/LargeStep/DeformErode/JobErode.odb,Step-1,Increment      4: Step Time =,    40.00,"TUBE-1",          2465,   7.07107E-03,   7.07107E-03,     187.5E-03,NA,NA,"",   10.0017E-03,            0.,   188.056E-03,   1.74860E-06,       183.676
C:/ALETube/PressureUpdate/LargeStep/DeformErode/JobErode.odb,Step-1,Increment      4: Step Time =,    40.00,"TUBE-1",          2499,   5.87785E-03,   8.09017E-03,     187.5E-03,NA,NA,"",   10.0017E-03,            0.,   188.056E-03,   1.74832E-06,       183.564
C:/ALETube/PressureUpdate/LargeStep/DeformErode/JobErode.odb,Step-1,Increment      4: Step Time =,    40.00,"TUBE-1",          2663,   5.87785E-03,   8.09017E-03,   200.000E-03,NA,NA,"",   10.0019E-03,  -867.362E-21,   200.555E-03,   1.86492E-06,       195.804
C:/ALETube/PressureUpdate/LargeStep/DeformErode/JobErode.odb,Step-1,Increment      4: Step Time =,    40.00,"TUBE-1",          2629,   7.07107E-03,   7.07107E-03,   200.000E-03,NA,NA,"",   10.0019E-03,            0.,   200.555E-03,   1.86522E-06,       195.923
C:/ALETube/PressureUpdate/LargeStep/DeformErode/JobErode.odb,Step-1,Increment      4: Step Time =,    40.00,"TUBE-1",          2827,   5.87785E-03,   8.09017E-03,   212.500E-03,NA,NA,"",   10.0020E-03,            0.,   213.054E-03,   1.98152E-06,       208.044
C:/ALETube/PressureUpdate/LargeStep/DeformErode/JobErode.odb,Step-1,Increment      4: Step Time =,    40.00,"TUBE-1",          2793,   7.07107E-03,   7.07107E-03,   212.500E-03,NA,NA,"",   10.0020E-03,            0.,   213.054E-03,   1.98184E-06,       208.170
C:/ALETube/PressureUpdate/LargeStep/DeformErode/JobErode.odb,Step-1,Increment      4: Step Time =,    40.00,"TUBE-1",          2991,   5.87785E-03,   8.09017E-03,   225.000E-03,NA,NA,"",   10.0021E-03,            0.,   225.553E-03,   2.09812E-06,       220.284
C:/ALETube/PressureUpdate/LargeStep/DeformErode/JobErode.odb,Step-1,Increment      4: Step Time =,    40.00,"TUBE-1",          2957,   7.07107E-03,   7.07107E-03,   225.000E-03,NA,NA,"",   10.0021E-03,            0.,   225.553E-03,   2.09846E-06,       220.418
C:/ALETube/PressureUpdate/LargeStep/DeformErode/JobErode.odb,Step-1,Increment      4: Step Time =,    40.00,"TUBE-1",          3155,   5.87785E-03,   8.09017E-03,   237.500E-03,NA,NA,"",   10.0022E-03,  -867.362E-21,   238.053E-03,   2.21473E-06,       232.524
C:/ALETube/PressureUpdate/LargeStep/DeformErode/JobErode.odb,Step-1,Increment      4: Step Time =,    40.00,"TUBE-1",          3121,   7.07107E-03,   7.07107E-03,   237.500E-03,NA,NA,"",   10.0022E-03,            0.,   238.053E-03,   2.21509E-06,       232.666
C:/ALETube/PressureUpdate/LargeStep/DeformErode/JobErode.odb,Step-1,Increment      4: Step Time =,    40.00,"TUBE-1",          3285,   7.07107E-03,   7.07107E-03,      250.E-03,NA,NA,"",   10.0023E-03,            0.,   250.552E-03,   2.33172E-06,       244.914
C:/ALETube/PressureUpdate/LargeStep/DeformErode/JobErode.odb,Step-1,Increment      4: Step Time =,    40.00,"TUBE-1",          3319,   5.87785E-03,   8.09017E-03,      250.E-03,NA,NA,"",   10.0023E-03,            0.,   250.552E-03,   2.33135E-06,       244.765
C:/ALETube/PressureUpdate/LargeStep/DeformErode/JobErode.odb,Step-1,Increment      4: Step Time =,    40.00,"TUBE-1",          3483,   5.87785E-03,   8.09017E-03,   262.500E-03,NA,NA,"",   10.0024E-03,  -867.362E-21,   263.051E-03,   2.44796E-06,       257.006
C:/ALETube/PressureUpdate/LargeStep/DeformErode/JobErode.odb,Step-1,Increment      4: Step Time =,    40.00,"TUBE-1",          3449,   7.07107E-03,   7.07107E-03,   262.500E-03,NA,NA,"",   10.0024E-03,            0.,   263.051E-03,   2.44836E-06,       257.163
C:/ALETube/PressureUpdate/LargeStep/DeformErode/JobErode.odb,Step-1,Increment      4: Step Time =,    40.00,"TUBE-1",          3647,   5.87785E-03,   8.09017E-03,   275.000E-03,NA,NA,"",   10.0026E-03,            0.,   275.550E-03,   2.56459E-06,       269.248
C:/ALETube/PressureUpdate/LargeStep/DeformErode/JobErode.odb,Step-1,Increment      4: Step Time =,    40.00,"TUBE-1",          3613,   7.07107E-03,   7.07107E-03,   275.000E-03,NA,NA,"",   10.0026E-03,            0.,   275.550E-03,   2.56500E-06,       269.412
C:/ALETube/PressureUpdate/LargeStep/DeformErode/JobErode.odb,Step-1,Increment      4: Step Time =,    40.00,"TUBE-1",          3811,   5.87785E-03,   8.09017E-03,   287.500E-03,NA,NA,"",   10.0027E-03,   867.362E-21,   288.049E-03,   2.68121E-06,       281.489
C:/ALETube/PressureUpdate/LargeStep/DeformErode/JobErode.odb,Step-1,Increment      4: Step Time =,    40.00,"TUBE-1",          3777,   7.07107E-03,   7.07107E-03,   287.500E-03,NA,NA,"",   10.0027E-03,            0.,   288.049E-03,   2.68164E-06,       281.661
C:/ALETube/PressureUpdate/LargeStep/DeformErode/JobErode.odb,Step-1,Increment      4: Step Time =,    40.00,"TUBE-1",          3975,   5.87785E-03,   8.09017E-03,   300.000E-03,NA,NA,"",   10.0028E-03,            0.,   300.548E-03,   2.79784E-06,       293.731
C:/ALETube/PressureUpdate/LargeStep/DeformErode/JobErode.odb,Step-1,Increment      4: Step Time =,    40.00,"TUBE-1",          3941,   7.07107E-03,   7.07107E-03,   300.000E-03,NA,NA,"",   10.0028E-03,            0.,   300.548E-03,   2.79829E-06,       293.910
C:/ALETube/PressureUpdate/LargeStep/DeformErode/JobErode.odb,Step-1,Increment      4: Step Time =,    40.00,"TUBE-1",          4105,   7.07107E-03,   7.07107E-03,     312.5E-03,NA,NA,"",   10.0029E-03,            0.,   313.047E-03,   2.91494E-06,       306.160
C:/ALETube/PressureUpdate/LargeStep/DeformErode/JobErode.odb,Step-1,Increment      4: Step Time =,    40.00,"TUBE-1",          4139,   5.87785E-03,   8.09017E-03,     312.5E-03,NA,NA,"",   10.0029E-03,            0.,   313.047E-03,   2.91448E-06,       305.973
C:/ALETube/PressureUpdate/LargeStep/DeformErode/JobErode.odb,Step-1,Increment      4: Step Time =,    40.00,"TUBE-1",          4303,   5.87785E-03,   8.09017E-03,   325.000E-03,NA,NA,"",   10.0030E-03,            0.,   325.546E-03,   3.03111E-06,       318.216
C:/ALETube/PressureUpdate/LargeStep/DeformErode/JobErode.odb,Step-1,Increment      4: Step Time =,    40.00,"TUBE-1",          4269,   7.07107E-03,   7.07107E-03,   325.000E-03,NA,NA,"",   10.0030E-03,            0.,   325.546E-03,   3.03160E-06,       318.409
C:/ALETube/PressureUpdate/LargeStep/DeformErode/JobErode.odb,Step-1,Increment      4: Step Time =,    40.00,"TUBE-1",          4467,   5.87785E-03,   8.09017E-03,   337.500E-03,NA,NA,"",   10.0031E-03,            0.,   338.045E-03,   3.14776E-06,       330.458
C:/ALETube/PressureUpdate/LargeStep/DeformErode/JobErode.odb,Step-1,Increment      4: Step Time =,    40.00,"TUBE-1",          4433,   7.07107E-03,   7.07107E-03,   337.500E-03,NA,NA,"",   10.0031E-03,            0.,   338.045E-03,   3.14826E-06,       330.659
C:/ALETube/PressureUpdate/LargeStep/DeformErode/JobErode.odb,Step-1,Increment      4: Step Time =,    40.00,"TUBE-1",          4631,   5.87785E-03,   8.09017E-03,   350.000E-03,NA,NA,"",   10.0033E-03,            0.,   350.543E-03,   3.26440E-06,       342.701
C:/ALETube/PressureUpdate/LargeStep/DeformErode/JobErode.odb,Step-1,Increment      4: Step Time =,    40.00,"TUBE-1",          4597,   7.07107E-03,   7.07107E-03,   350.000E-03,NA,NA,"",   10.0033E-03,            0.,   350.543E-03,   3.26493E-06,       342.910
C:/ALETube/PressureUpdate/LargeStep/DeformErode/JobErode.odb,Step-1,Increment      4: Step Time =,    40.00,"TUBE-1",          4795,   5.87785E-03,   8.09017E-03,   362.500E-03,NA,NA,"",   10.0034E-03,            0.,   363.042E-03,   3.38105E-06,       354.944
C:/ALETube/PressureUpdate/LargeStep/DeformErode/JobErode.odb,Step-1,Increment      4: Step Time =,    40.00,"TUBE-1",          4761,   7.07107E-03,   7.07107E-03,   362.500E-03,NA,NA,"",   10.0034E-03,            0.,   363.042E-03,   3.38160E-06,       355.160
C:/ALETube/PressureUpdate/LargeStep/DeformErode/JobErode.odb,Step-1,Increment      4: Step Time =,    40.00,"TUBE-1",          4925,   7.07107E-03,   7.07107E-03,      375.E-03,NA,NA,"",   10.0035E-03,            0.,   375.541E-03,   3.49827E-06,       367.411
C:/ALETube/PressureUpdate/LargeStep/DeformErode/JobErode.odb,Step-1,Increment      4: Step Time =,    40.00,"TUBE-1",          4959,   5.87785E-03,   8.09017E-03,      375.E-03,NA,NA,"",   10.0035E-03,            0.,   375.541E-03,   3.49771E-06,       367.187
C:/ALETube/PressureUpdate/LargeStep/DeformErode/JobErode.odb,Step-1,Increment      4: Step Time =,    40.00,"TUBE-1",          5123,   5.87785E-03,   8.09017E-03,   387.500E-03,NA,NA,"",   10.0036E-03,   867.362E-21,   388.039E-03,   3.61437E-06,       379.431
C:/ALETube/PressureUpdate/LargeStep/DeformErode/JobErode.odb,Step-1,Increment      4: Step Time =,    40.00,"TUBE-1",          5089,   7.07107E-03,   7.07107E-03,   387.500E-03,NA,NA,"",   10.0036E-03,            0.,   388.039E-03,   3.61495E-06,       379.662
C:/ALETube/PressureUpdate/LargeStep/DeformErode/JobErode.odb,Step-1,Increment      4: Step Time =,    40.00,"TUBE-1",          5287,   5.87785E-03,   8.09017E-03,   400.000E-03,NA,NA,"",   10.0037E-03,            0.,   400.538E-03,   3.73103E-06,       391.675
C:/ALETube/PressureUpdate/LargeStep/DeformErode/JobErode.odb,Step-1,Increment      4: Step Time =,    40.00,"TUBE-1",          5253,   7.07107E-03,   7.07107E-03,   400.000E-03,NA,NA,"",   10.0037E-03,            0.,   400.538E-03,   3.73163E-06,       391.913
C:/ALETube/PressureUpdate/LargeStep/DeformErode/JobErode.odb,Step-1,Increment      4: Step Time =,    40.00,"TUBE-1",          5451,   5.87785E-03,   8.09017E-03,   412.500E-03,NA,NA,"",   10.0038E-03,   867.362E-21,   413.037E-03,   3.84770E-06,       403.919
C:/ALETube/PressureUpdate/LargeStep/DeformErode/JobErode.odb,Step-1,Increment      4: Step Time =,    40.00,"TUBE-1",          5417,   7.07107E-03,   7.07107E-03,   412.500E-03,NA,NA,"",   10.0038E-03,            0.,   413.037E-03,   3.84832E-06,       404.165
C:/ALETube/PressureUpdate/LargeStep/DeformErode/JobErode.odb,Step-1,Increment      4: Step Time =,    40.00,"TUBE-1",          5615,   5.87785E-03,   8.09017E-03,   425.000E-03,NA,NA,"",   10.0040E-03,  -867.362E-21,   425.535E-03,   3.96437E-06,       416.163
C:/ALETube/PressureUpdate/LargeStep/DeformErode/JobErode.odb,Step-1,Increment      4: Step Time =,    40.00,"TUBE-1",          5581,   7.07107E-03,   7.07107E-03,   425.000E-03,NA,NA,"",   10.0040E-03,            0.,   425.535E-03,   3.96501E-06,       416.417
C:/ALETube/PressureUpdate/LargeStep/DeformErode/JobErode.odb,Step-1,Increment      4: Step Time =,    40.00,"TUBE-1",          5745,   7.07107E-03,   7.07107E-03,     437.5E-03,NA,NA,"",   10.0041E-03,            0.,   438.034E-03,   4.08170E-06,       428.669
C:/ALETube/PressureUpdate/LargeStep/DeformErode/JobErode.odb,Step-1,Increment      4: Step Time =,    40.00,"TUBE-1",          5779,   5.87785E-03,   8.09017E-03,     437.5E-03,NA,NA,"",   10.0041E-03,            0.,   438.034E-03,   4.08105E-06,       428.408
C:/ALETube/PressureUpdate/LargeStep/DeformErode/JobErode.odb,Step-1,Increment      4: Step Time =,    40.00,"TUBE-1",          5943,   5.87785E-03,   8.09017E-03,   450.000E-03,NA,NA,"",   10.0042E-03,            0.,   450.532E-03,   4.19773E-06,       440.652
C:/ALETube/PressureUpdate/LargeStep/DeformErode/JobErode.odb,Step-1,Increment      4: Step Time =,    40.00,"TUBE-1",          5909,   7.07107E-03,   7.07107E-03,   450.000E-03,NA,NA,"",   10.0042E-03,            0.,   450.532E-03,   4.19840E-06,       440.921
C:/ALETube/PressureUpdate/LargeStep/DeformErode/JobErode.odb,Step-1,Increment      4: Step Time =,    40.00,"TUBE-1",          6107,   5.87785E-03,   8.09017E-03,   462.500E-03,NA,NA,"",   10.0043E-03,  -867.362E-21,   463.030E-03,   4.31441E-06,       452.898
C:/ALETube/PressureUpdate/LargeStep/DeformErode/JobErode.odb,Step-1,Increment      4: Step Time =,    40.00,"TUBE-1",          6073,   7.07107E-03,   7.07107E-03,   462.500E-03,NA,NA,"",   10.0043E-03,            0.,   463.030E-03,   4.31510E-06,       453.173
C:/ALETube/PressureUpdate/LargeStep/DeformErode/JobErode.odb,Step-1,Increment      4: Step Time =,    40.00,"TUBE-1",          6271,   5.87785E-03,   8.09017E-03,   475.000E-03,NA,NA,"",   10.0044E-03,   867.362E-21,   475.529E-03,   4.43110E-06,       465.143
C:/ALETube/PressureUpdate/LargeStep/DeformErode/JobErode.odb,Step-1,Increment      4: Step Time =,    40.00,"TUBE-1",          6237,   7.07107E-03,   7.07107E-03,   475.000E-03,NA,NA,"",   10.0044E-03,            0.,   475.529E-03,   4.43181E-06,       465.426
C:/ALETube/PressureUpdate/LargeStep/DeformErode/JobErode.odb,Step-1,Increment      4: Step Time =,    40.00,"TUBE-1",          6435,   5.87785E-03,   8.09017E-03,   487.500E-03,NA,NA,"",   10.0045E-03,  -867.362E-21,   488.027E-03,   4.54779E-06,       477.388
C:/ALETube/PressureUpdate/LargeStep/DeformErode/JobErode.odb,Step-1,Increment      4: Step Time =,    40.00,"TUBE-1",          6401,   7.07107E-03,   7.07107E-03,   487.500E-03,NA,NA,"",   10.0045E-03,            0.,   488.027E-03,   4.54852E-06,       477.679
C:/ALETube/PressureUpdate/LargeStep/DeformErode/JobErode.odb,Step-1,Increment      4: Step Time =,    40.00,"TUBE-1",          6565,   7.07107E-03,   7.07107E-03,      500.E-03,NA,NA,"",   10.0047E-03,            0.,   500.525E-03,   4.66523E-06,       489.932
C:/ALETube/PressureUpdate/LargeStep/DeformErode/JobErode.odb,Step-1,Increment      4: Step Time =,    40.00,"TUBE-1",          6599,   5.87785E-03,   8.09017E-03,      500.E-03,NA,NA,"",   10.0047E-03,  -867.362E-21,   500.525E-03,   4.66449E-06,       489.634
C:/ALETube/PressureUpdate/LargeStep/DeformErode/JobErode.odb,Step-1,Increment      4: Step Time =,    40.00,"TUBE-1",          6763,   5.87785E-03,   8.09017E-03,   512.500E-03,NA,NA,"",   10.0048E-03,  -867.362E-21,   513.024E-03,   4.78119E-06,       501.880
C:/ALETube/PressureUpdate/LargeStep/DeformErode/JobErode.odb,Step-1,Increment      4: Step Time =,    40.00,"TUBE-1",          6729,   7.07107E-03,   7.07107E-03,   512.500E-03,NA,NA,"",   10.0048E-03,            0.,   513.024E-03,   4.78195E-06,       502.186
C:/ALETube/PressureUpdate/LargeStep/DeformErode/JobErode.odb,Step-1,Increment      4: Step Time =,    40.00,"TUBE-1",          6927,   5.87785E-03,   8.09017E-03,   525.000E-03,NA,NA,"",   10.0049E-03,   867.362E-21,   525.522E-03,   4.89789E-06,       514.126
C:/ALETube/PressureUpdate/LargeStep/DeformErode/JobErode.odb,Step-1,Increment      4: Step Time =,    40.00,"TUBE-1",          6893,   7.07107E-03,   7.07107E-03,   525.000E-03,NA,NA,"",   10.0049E-03,            0.,   525.522E-03,   4.89868E-06,       514.439
C:/ALETube/PressureUpdate/LargeStep/DeformErode/JobErode.odb,Step-1,Increment      4: Step Time =,    40.00,"TUBE-1",          7091,   5.87785E-03,   8.09017E-03,   537.500E-03,NA,NA,"",   10.0050E-03,   867.362E-21,   538.020E-03,   5.01460E-06,       526.373
C:/ALETube/PressureUpdate/LargeStep/DeformErode/JobErode.odb,Step-1,Increment      4: Step Time =,    40.00,"TUBE-1",          7057,   7.07107E-03,   7.07107E-03,   537.500E-03,NA,NA,"",   10.0050E-03,            0.,   538.020E-03,   5.01540E-06,       526.693
C:/ALETube/PressureUpdate/LargeStep/DeformErode/JobErode.odb,Step-1,Increment      4: Step Time =,    40.00,"TUBE-1",          7255,   5.87785E-03,   8.09017E-03,   550.000E-03,NA,NA,"",   10.0051E-03,  -867.362E-21,   550.518E-03,   5.13131E-06,       538.620
C:/ALETube/PressureUpdate/LargeStep/DeformErode/JobErode.odb,Step-1,Increment      4: Step Time =,    40.00,"TUBE-1",          7221,   7.07107E-03,   7.07107E-03,   550.000E-03,NA,NA,"",   10.0051E-03,            0.,   550.518E-03,   5.13214E-06,       538.948
C:/ALETube/PressureUpdate/LargeStep/DeformErode/JobErode.odb,Step-1,Increment      4: Step Time =,    40.00,"TUBE-1",          7385,   7.07107E-03,   7.07107E-03,     562.5E-03,NA,NA,"",   10.0052E-03,            0.,   563.016E-03,   5.24887E-06,       551.202
C:/ALETube/PressureUpdate/LargeStep/DeformErode/JobErode.odb,Step-1,Increment      4: Step Time =,    40.00,"TUBE-1",          7419,   5.87785E-03,   8.09017E-03,     562.5E-03,NA,NA,"",   10.0052E-03,  -867.362E-21,   563.016E-03,   5.24803E-06,       550.867
C:/ALETube/PressureUpdate/LargeStep/DeformErode/JobErode.odb,Step-1,Increment      4: Step Time =,    40.00,"TUBE-1",          7583,   5.87785E-03,   8.09017E-03,   575.000E-03,NA,NA,"",   10.0054E-03,   867.362E-21,   575.514E-03,   5.36475E-06,       563.114
C:/ALETube/PressureUpdate/LargeStep/DeformErode/JobErode.odb,Step-1,Increment      4: Step Time =,    40.00,"TUBE-1",          7549,   7.07107E-03,   7.07107E-03,   575.000E-03,NA,NA,"",   10.0054E-03,            0.,   575.514E-03,   5.36561E-06,       563.457
C:/ALETube/PressureUpdate/LargeStep/DeformErode/JobErode.odb,Step-1,Increment      4: Step Time =,    40.00,"TUBE-1",          7747,   5.87785E-03,   8.09017E-03,   587.500E-03,NA,NA,"",   10.0055E-03,            0.,   588.012E-03,   5.48148E-06,       575.361
C:/ALETube/PressureUpdate/LargeStep/DeformErode/JobErode.odb,Step-1,Increment      4: Step Time =,    40.00,"TUBE-1",          7713,   7.07107E-03,   7.07107E-03,   587.500E-03,NA,NA,"",   10.0055E-03,            0.,   588.012E-03,   5.48236E-06,       575.711
C:/ALETube/PressureUpdate/LargeStep/DeformErode/JobErode.odb,Step-1,Increment      4: Step Time =,    40.00,"TUBE-1",          7911,   5.87785E-03,   8.09017E-03,   600.000E-03,NA,NA,"",   10.0056E-03,  -867.362E-21,   600.510E-03,   5.59821E-06,       587.609
C:/ALETube/PressureUpdate/LargeStep/DeformErode/JobErode.odb,Step-1,Increment      4: Step Time =,    40.00,"TUBE-1",          7877,   7.07107E-03,   7.07107E-03,   600.000E-03,NA,NA,"",   10.0056E-03,            0.,   600.510E-03,   5.59911E-06,       587.967
C:/ALETube/PressureUpdate/LargeStep/DeformErode/JobErode.odb,Step-1,Increment      4: Step Time =,    40.00,"TUBE-1",          8075,   5.87785E-03,   8.09017E-03,   612.500E-03,NA,NA,"",   10.0057E-03,            0.,   613.008E-03,   5.71494E-06,       599.857
C:/ALETube/PressureUpdate/LargeStep/DeformErode/JobErode.odb,Step-1,Increment      4: Step Time =,    40.00,"TUBE-1",          8041,   7.07107E-03,   7.07107E-03,   612.500E-03,NA,NA,"",   10.0057E-03,            0.,   613.008E-03,   5.71586E-06,       600.222
C:/ALETube/PressureUpdate/LargeStep/DeformErode/JobErode.odb,Step-1,Increment      4: Step Time =,    40.00,"TUBE-1",          8205,   7.07107E-03,   7.07107E-03,      625.E-03,NA,NA,"",   10.0058E-03,            0.,   625.506E-03,   5.83262E-06,       612.478
C:/ALETube/PressureUpdate/LargeStep/DeformErode/JobErode.odb,Step-1,Increment      4: Step Time =,    40.00,"TUBE-1",          8239,   5.87785E-03,   8.09017E-03,      625.E-03,NA,NA,"",   10.0058E-03,            0.,   625.506E-03,   5.83168E-06,       612.105
C:/ALETube/PressureUpdate/LargeStep/DeformErode/JobErode.odb,Step-1,Increment      4: Step Time =,    40.00,"TUBE-1",          8403,   5.87785E-03,   8.09017E-03,   637.500E-03,NA,NA,"",   10.0059E-03,   867.362E-21,   638.003E-03,   5.94842E-06,       624.353
C:/ALETube/PressureUpdate/LargeStep/DeformErode/JobErode.odb,Step-1,Increment      4: Step Time =,    40.00,"TUBE-1",          8369,   7.07107E-03,   7.07107E-03,   637.500E-03,NA,NA,"",   10.0059E-03,            0.,   638.003E-03,   5.94938E-06,       624.734
C:/ALETube/PressureUpdate/LargeStep/DeformErode/JobErode.odb,Step-1,Increment      4: Step Time =,    40.00,"TUBE-1",          8567,   5.87785E-03,   8.09017E-03,   650.000E-03,NA,NA,"",   10.0061E-03,   867.362E-21,   650.501E-03,   6.06517E-06,       636.602
C:/ALETube/PressureUpdate/LargeStep/DeformErode/JobErode.odb,Step-1,Increment      4: Step Time =,    40.00,"TUBE-1",          8533,   7.07107E-03,   7.07107E-03,   650.000E-03,NA,NA,"",   10.0061E-03,            0.,   650.501E-03,   6.06614E-06,       636.990
C:/ALETube/PressureUpdate/LargeStep/DeformErode/JobErode.odb,Step-1,Increment      4: Step Time =,    40.00,"TUBE-1",          8731,   5.87785E-03,   8.09017E-03,   662.500E-03,NA,NA,"",   10.0062E-03,  -867.362E-21,   662.999E-03,   6.18192E-06,       648.851
C:/ALETube/PressureUpdate/LargeStep/DeformErode/JobErode.odb,Step-1,Increment      4: Step Time =,    40.00,"TUBE-1",          8697,   7.07107E-03,   7.07107E-03,   662.500E-03,NA,NA,"",   10.0062E-03,            0.,   662.999E-03,   6.18291E-06,       649.246
C:/ALETube/PressureUpdate/LargeStep/DeformErode/JobErode.odb,Step-1,Increment      4: Step Time =,    40.00,"TUBE-1",          8895,   5.87785E-03,   8.09017E-03,   675.000E-03,NA,NA,"",   10.0063E-03,  -867.362E-21,   675.497E-03,   6.29868E-06,       661.100
C:/ALETube/PressureUpdate/LargeStep/DeformErode/JobErode.odb,Step-1,Increment      4: Step Time =,    40.00,"TUBE-1",          8861,   7.07107E-03,   7.07107E-03,   675.000E-03,NA,NA,"",   10.0063E-03,            0.,   675.497E-03,   6.29969E-06,       661.503
C:/ALETube/PressureUpdate/LargeStep/DeformErode/JobErode.odb,Step-1,Increment      4: Step Time =,    40.00,"TUBE-1",          9025,   7.07107E-03,   7.07107E-03,     687.5E-03,NA,NA,"",   10.0064E-03,            0.,   687.994E-03,   6.41646E-06,       673.760
C:/ALETube/PressureUpdate/LargeStep/DeformErode/JobErode.odb,Step-1,Increment      4: Step Time =,    40.00,"TUBE-1",          9059,   5.87785E-03,   8.09017E-03,     687.5E-03,NA,NA,"",   10.0064E-03,            0.,   687.994E-03,   6.41544E-06,       673.349
C:/ALETube/PressureUpdate/LargeStep/DeformErode/JobErode.odb,Step-1,Increment      4: Step Time =,    40.00,"TUBE-1",          9223,   5.87785E-03,   8.09017E-03,   700.000E-03,NA,NA,"",   10.0065E-03,            0.,   700.492E-03,   6.53220E-06,       685.599
C:/ALETube/PressureUpdate/LargeStep/DeformErode/JobErode.odb,Step-1,Increment      4: Step Time =,    40.00,"TUBE-1",          9189,   7.07107E-03,   7.07107E-03,   700.000E-03,NA,NA,"",   10.0065E-03,            0.,   700.492E-03,   6.53325E-06,       686.017
C:/ALETube/PressureUpdate/LargeStep/DeformErode/JobErode.odb,Step-1,Increment      4: Step Time =,    40.00,"TUBE-1",          9387,   5.87785E-03,   8.09017E-03,   712.500E-03,NA,NA,"",   10.0066E-03,            0.,   712.989E-03,   6.64897E-06,       697.849
C:/ALETube/PressureUpdate/LargeStep/DeformErode/JobErode.odb,Step-1,Increment      4: Step Time =,    40.00,"TUBE-1",          9353,   7.07107E-03,   7.07107E-03,   712.500E-03,NA,NA,"",   10.0066E-03,            0.,   712.989E-03,   6.65003E-06,       698.274
C:/ALETube/PressureUpdate/LargeStep/DeformErode/JobErode.odb,Step-1,Increment      4: Step Time =,    40.00,"TUBE-1",          9551,   5.87785E-03,   8.09017E-03,   725.000E-03,NA,NA,"",   10.0068E-03,            0.,   725.487E-03,   6.76574E-06,       710.099
C:/ALETube/PressureUpdate/LargeStep/DeformErode/JobErode.odb,Step-1,Increment      4: Step Time =,    40.00,"TUBE-1",          9517,   7.07107E-03,   7.07107E-03,   725.000E-03,NA,NA,"",   10.0068E-03,            0.,   725.487E-03,   6.76682E-06,       710.532
C:/ALETube/PressureUpdate/LargeStep/DeformErode/JobErode.odb,Step-1,Increment      4: Step Time =,    40.00,"TUBE-1",          9715,   5.87785E-03,   8.09017E-03,   737.500E-03,NA,NA,"",   10.0069E-03,  -867.362E-21,   737.984E-03,   6.88252E-06,       722.349
C:/ALETube/PressureUpdate/LargeStep/DeformErode/JobErode.odb,Step-1,Increment      4: Step Time =,    40.00,"TUBE-1",          9681,   7.07107E-03,   7.07107E-03,   737.500E-03,NA,NA,"",   10.0069E-03,            0.,   737.984E-03,   6.88362E-06,       722.789
C:/ALETube/PressureUpdate/LargeStep/DeformErode/JobErode.odb,Step-1,Increment      4: Step Time =,    40.00,"TUBE-1",          9845,   7.07107E-03,   7.07107E-03,      750.E-03,NA,NA,"",   10.0070E-03,            0.,   750.482E-03,   7.00041E-06,       735.047
C:/ALETube/PressureUpdate/LargeStep/DeformErode/JobErode.odb,Step-1,Increment      4: Step Time =,    40.00,"TUBE-1",          9879,   5.87785E-03,   8.09017E-03,      750.E-03,NA,NA,"",   10.0070E-03,            0.,   750.482E-03,   6.99930E-06,       734.600
C:/ALETube/PressureUpdate/LargeStep/DeformErode/JobErode.odb,Step-1,Increment      4: Step Time =,    40.00,"TUBE-1",         10043,   5.87785E-03,   8.09017E-03,   762.500E-03,NA,NA,"",   10.0071E-03,   867.362E-21,   762.979E-03,   7.11608E-06,       746.851
C:/ALETube/PressureUpdate/LargeStep/DeformErode/JobErode.odb,Step-1,Increment      4: Step Time =,    40.00,"TUBE-1",         10009,   7.07107E-03,   7.07107E-03,   762.500E-03,NA,NA,"",   10.0071E-03,            0.,   762.979E-03,   7.11722E-06,       747.306
C:/ALETube/PressureUpdate/LargeStep/DeformErode/JobErode.odb,Step-1,Increment      4: Step Time =,    40.00,"TUBE-1",         10207,   5.87785E-03,   8.09017E-03,   775.000E-03,NA,NA,"",   10.0072E-03,   867.362E-21,   775.476E-03,   7.23287E-06,       759.102
C:/ALETube/PressureUpdate/LargeStep/DeformErode/JobErode.odb,Step-1,Increment      4: Step Time =,    40.00,"TUBE-1",         10173,   7.07107E-03,   7.07107E-03,   775.000E-03,NA,NA,"",   10.0072E-03,            0.,   775.476E-03,   7.23402E-06,       759.564
C:/ALETube/PressureUpdate/LargeStep/DeformErode/JobErode.odb,Step-1,Increment      4: Step Time =,    40.00,"TUBE-1",         10371,   5.87785E-03,   8.09017E-03,   787.500E-03,NA,NA,"",   10.0073E-03,  -867.362E-21,   787.973E-03,   7.34966E-06,       771.353
C:/ALETube/PressureUpdate/LargeStep/DeformErode/JobErode.odb,Step-1,Increment      4: Step Time =,    40.00,"TUBE-1",         10337,   7.07107E-03,   7.07107E-03,   787.500E-03,NA,NA,"",   10.0074E-03,            0.,   787.973E-03,   7.35084E-06,       771.823
C:/ALETube/PressureUpdate/LargeStep/DeformErode/JobErode.odb,Step-1,Increment      4: Step Time =,    40.00,"TUBE-1",         10535,   5.87785E-03,   8.09017E-03,   800.000E-03,NA,NA,"",   10.0075E-03,            0.,   800.471E-03,   7.46646E-06,       783.605
C:/ALETube/PressureUpdate/LargeStep/DeformErode/JobErode.odb,Step-1,Increment      4: Step Time =,    40.00,"TUBE-1",         10501,   7.07107E-03,   7.07107E-03,   800.000E-03,NA,NA,"",   10.0075E-03,            0.,   800.471E-03,   7.46765E-06,       784.082
C:/ALETube/PressureUpdate/LargeStep/DeformErode/JobErode.odb,Step-1,Increment      4: Step Time =,    40.00,"TUBE-1",         10665,   7.07107E-03,   7.07107E-03,     812.5E-03,NA,NA,"",   10.0076E-03,            0.,   812.968E-03,   7.58447E-06,       796.341
C:/ALETube/PressureUpdate/LargeStep/DeformErode/JobErode.odb,Step-1,Increment      4: Step Time =,    40.00,"TUBE-1",         10699,   5.87785E-03,   8.09017E-03,     812.5E-03,NA,NA,"",   10.0076E-03,            0.,   812.968E-03,   7.58326E-06,       795.856
C:/ALETube/PressureUpdate/LargeStep/DeformErode/JobErode.odb,Step-1,Increment      4: Step Time =,    40.00,"TUBE-1",         10863,   5.87785E-03,   8.09017E-03,   825.000E-03,NA,NA,"",   10.0077E-03,  -867.362E-21,   825.465E-03,   7.70006E-06,       808.108
C:/ALETube/PressureUpdate/LargeStep/DeformErode/JobErode.odb,Step-1,Increment      4: Step Time =,    40.00,"TUBE-1",         10829,   7.07107E-03,   7.07107E-03,   825.000E-03,NA,NA,"",   10.0077E-03,            0.,   825.465E-03,   7.70129E-06,       808.600
C:/ALETube/PressureUpdate/LargeStep/DeformErode/JobErode.odb,Step-1,Increment      4: Step Time =,    40.00,"TUBE-1",         11027,   5.87785E-03,   8.09017E-03,   837.500E-03,NA,NA,"",   10.0078E-03,  -867.362E-21,   837.962E-03,   7.81687E-06,       820.361
C:/ALETube/PressureUpdate/LargeStep/DeformErode/JobErode.odb,Step-1,Increment      4: Step Time =,    40.00,"TUBE-1",         10993,   7.07107E-03,   7.07107E-03,   837.500E-03,NA,NA,"",   10.0078E-03,            0.,   837.962E-03,   7.81812E-06,       820.860
C:/ALETube/PressureUpdate/LargeStep/DeformErode/JobErode.odb,Step-1,Increment      4: Step Time =,    40.00,"TUBE-1",         11191,   5.87785E-03,   8.09017E-03,   850.000E-03,NA,NA,"",   10.0079E-03,            0.,   850.459E-03,   7.93369E-06,       832.613
C:/ALETube/PressureUpdate/LargeStep/DeformErode/JobErode.odb,Step-1,Increment      4: Step Time =,    40.00,"TUBE-1",         11157,   7.07107E-03,   7.07107E-03,   850.000E-03,NA,NA,"",   10.0079E-03,            0.,   850.459E-03,   7.93495E-06,       833.120
C:/ALETube/PressureUpdate/LargeStep/DeformErode/JobErode.odb,Step-1,Increment      4: Step Time =,    40.00,"TUBE-1",         11355,   5.87785E-03,   8.09017E-03,   862.500E-03,NA,NA,"",   10.0081E-03,   867.362E-21,   862.956E-03,   8.05050E-06,       844.866
C:/ALETube/PressureUpdate/LargeStep/DeformErode/JobErode.odb,Step-1,Increment      4: Step Time =,    40.00,"TUBE-1",         11321,   7.07107E-03,   7.07107E-03,   862.500E-03,NA,NA,"",   10.0081E-03,            0.,   862.956E-03,   8.05179E-06,       845.380
C:/ALETube/PressureUpdate/LargeStep/DeformErode/JobErode.odb,Step-1,Increment      4: Step Time =,    40.00,"TUBE-1",         11485,   7.07107E-03,   7.07107E-03,      875.E-03,NA,NA,"",   10.0082E-03,            0.,   875.453E-03,   8.16863E-06,       857.641
C:/ALETube/PressureUpdate/LargeStep/DeformErode/JobErode.odb,Step-1,Increment      4: Step Time =,    40.00,"TUBE-1",         11519,   5.87785E-03,   8.09017E-03,      875.E-03,NA,NA,"",   10.0082E-03,   867.362E-21,   875.453E-03,   8.16733E-06,       857.119
C:/ALETube/PressureUpdate/LargeStep/DeformErode/JobErode.odb,Step-1,Increment      4: Step Time =,    40.00,"TUBE-1",         11683,   5.87785E-03,   8.09017E-03,   887.500E-03,NA,NA,"",   10.0083E-03,            0.,   887.950E-03,   8.28415E-06,       869.372
C:/ALETube/PressureUpdate/LargeStep/DeformErode/JobErode.odb,Step-1,Increment      4: Step Time =,    40.00,"TUBE-1",         11649,   7.07107E-03,   7.07107E-03,   887.500E-03,NA,NA,"",   10.0083E-03,            0.,   887.950E-03,   8.28548E-06,       869.902
C:/ALETube/PressureUpdate/LargeStep/DeformErode/JobErode.odb,Step-1,Increment      4: Step Time =,    40.00,"TUBE-1",         11847,   5.87785E-03,   8.09017E-03,   900.000E-03,NA,NA,"",   10.0084E-03,            0.,   900.447E-03,   8.40098E-06,       881.626
C:/ALETube/PressureUpdate/LargeStep/DeformErode/JobErode.odb,Step-1,Increment      4: Step Time =,    40.00,"TUBE-1",         11813,   7.07107E-03,   7.07107E-03,   900.000E-03,NA,NA,"",   10.0084E-03,            0.,   900.447E-03,   8.40232E-06,       882.163
C:/ALETube/PressureUpdate/LargeStep/DeformErode/JobErode.odb,Step-1,Increment      4: Step Time =,    40.00,"TUBE-1",         12011,   5.87785E-03,   8.09017E-03,   912.500E-03,NA,NA,"",   10.0085E-03,  -867.362E-21,   912.944E-03,   8.51782E-06,       893.880
C:/ALETube/PressureUpdate/LargeStep/DeformErode/JobErode.odb,Step-1,Increment      4: Step Time =,    40.00,"TUBE-1",         11977,   7.07107E-03,   7.07107E-03,   912.500E-03,NA,NA,"",   10.0085E-03,            0.,   912.944E-03,   8.51918E-06,       894.424
C:/ALETube/PressureUpdate/LargeStep/DeformErode/JobErode.odb,Step-1,Increment      4: Step Time =,    40.00,"TUBE-1",         12175,   5.87785E-03,   8.09017E-03,   925.000E-03,NA,NA,"",   10.0086E-03,            0.,   925.440E-03,   8.63466E-06,       906.133
C:/ALETube/PressureUpdate/LargeStep/DeformErode/JobErode.odb,Step-1,Increment      4: Step Time =,    40.00,"TUBE-1",         12141,   7.07107E-03,   7.07107E-03,   925.000E-03,NA,NA,"",   10.0086E-03,            0.,   925.440E-03,   8.63603E-06,       906.685
C:/ALETube/PressureUpdate/LargeStep/DeformErode/JobErode.odb,Step-1,Increment      4: Step Time =,    40.00,"TUBE-1",         12305,   7.07107E-03,   7.07107E-03,     937.5E-03,NA,NA,"",   10.0088E-03,            0.,   937.937E-03,   8.75290E-06,       918.947
C:/ALETube/PressureUpdate/LargeStep/DeformErode/JobErode.odb,Step-1,Increment      4: Step Time =,    40.00,"TUBE-1",         12339,   5.87785E-03,   8.09017E-03,     937.5E-03,NA,NA,"",   10.0088E-03,   867.362E-21,   937.937E-03,   8.75150E-06,       918.388
C:/ALETube/PressureUpdate/LargeStep/DeformErode/JobErode.odb,Step-1,Increment      4: Step Time =,    40.00,"TUBE-1",         12503,   5.87785E-03,   8.09017E-03,   950.000E-03,NA,NA,"",   10.0089E-03,            0.,   950.434E-03,   8.86834E-06,       930.642
C:/ALETube/PressureUpdate/LargeStep/DeformErode/JobErode.odb,Step-1,Increment      4: Step Time =,    40.00,"TUBE-1",         12469,   7.07107E-03,   7.07107E-03,   950.000E-03,NA,NA,"",   10.0089E-03,            0.,   950.434E-03,   8.86976E-06,       931.209
C:/ALETube/PressureUpdate/LargeStep/DeformErode/JobErode.odb,Step-1,Increment      4: Step Time =,    40.00,"TUBE-1",         12667,   5.87785E-03,   8.09017E-03,   962.500E-03,NA,NA,"",   10.0090E-03,            0.,   962.930E-03,   8.98520E-06,       942.897
C:/ALETube/PressureUpdate/LargeStep/DeformErode/JobErode.odb,Step-1,Increment      4: Step Time =,    40.00,"TUBE-1",         12633,   7.07107E-03,   7.07107E-03,   962.500E-03,NA,NA,"",   10.0090E-03,            0.,   962.930E-03,   8.98663E-06,       943.471
C:/ALETube/PressureUpdate/LargeStep/DeformErode/JobErode.odb,Step-1,Increment      4: Step Time =,    40.00,"TUBE-1",         12831,   5.87785E-03,   8.09017E-03,   975.000E-03,NA,NA,"",   10.0091E-03,            0.,   975.427E-03,   9.10205E-06,       955.152
C:/ALETube/PressureUpdate/LargeStep/DeformErode/JobErode.odb,Step-1,Increment      4: Step Time =,    40.00,"TUBE-1",         12797,   7.07107E-03,   7.07107E-03,   975.000E-03,NA,NA,"",   10.0091E-03,            0.,   975.427E-03,   9.10351E-06,       955.733
C:/ALETube/PressureUpdate/LargeStep/DeformErode/JobErode.odb,Step-1,Increment      4: Step Time =,    40.00,"TUBE-1",         12995,   5.87785E-03,   8.09017E-03,   987.500E-03,NA,NA,"",   10.0092E-03,            0.,   987.924E-03,   9.21891E-06,       967.407
C:/ALETube/PressureUpdate/LargeStep/DeformErode/JobErode.odb,Step-1,Increment      4: Step Time =,    40.00,"TUBE-1",         12961,   7.07107E-03,   7.07107E-03,   987.500E-03,NA,NA,"",   10.0092E-03,            0.,   987.924E-03,   9.22038E-06,       967.996
C:/ALETube/PressureUpdate/LargeStep/DeformErode/JobErode.odb,Step-1,Increment      4: Step Time =,    40.00,"TUBE-1",         13125,   7.07107E-03,   7.07107E-03,            1.,NA,NA,"",   10.0093E-03,            0.,       1.00042,   9.33726E-06,       980.259
C:/ALETube/PressureUpdate/LargeStep/DeformErode/JobErode.odb,Step-1,Increment      4: Step Time =,    40.00,"TUBE-1",         13159,   5.87785E-03,   8.09017E-03,            1.,NA,NA,"",   10.0093E-03,            0.,       1.00042,   9.33577E-06,       979.662
C:/ALETube/PressureUpdate/LargeStep/DeformErode/JobErode.odb,Step-1,Increment      4: Step Time =,    40.00,"TUBE-1",         13323,   5.87785E-03,   8.09017E-03,       1.01250,NA,NA,"",   10.0095E-03,   867.362E-21,       1.01292,   9.45264E-06,       991.918
C:/ALETube/PressureUpdate/LargeStep/DeformErode/JobErode.odb,Step-1,Increment      4: Step Time =,    40.00,"TUBE-1",         13289,   7.07107E-03,   7.07107E-03,       1.01250,NA,NA,"",   10.0095E-03,            0.,       1.01292,   9.45415E-06,       992.522
C:/ALETube/PressureUpdate/LargeStep/DeformErode/JobErode.odb,Step-1,Increment      4: Step Time =,    40.00,"TUBE-1",         13487,   5.87785E-03,   8.09017E-03,       1.02500,NA,NA,"",   10.0096E-03,  -867.362E-21,       1.02541,   9.56951E-06,   1.00417E+03
C:/ALETube/PressureUpdate/LargeStep/DeformErode/JobErode.odb,Step-1,Increment      4: Step Time =,    40.00,"TUBE-1",         13453,   7.07107E-03,   7.07107E-03,       1.02500,NA,NA,"",   10.0096E-03,            0.,       1.02541,   9.57104E-06,   1.00479E+03
C:/ALETube/PressureUpdate/LargeStep/DeformErode/JobErode.odb,Step-1,Increment      4: Step Time =,    40.00,"TUBE-1",         13617,   7.07107E-03,   7.07107E-03,       1.03750,NA,NA,"",   10.0097E-03,            0.,       1.03791,   9.68794E-06,   1.01705E+03
C:/ALETube/PressureUpdate/LargeStep/DeformErode/JobErode.odb,Step-1,Increment      4: Step Time =,    40.00,"TUBE-1",         13651,   5.87785E-03,   8.09017E-03,       1.03750,NA,NA,"",   10.0097E-03,            0.,       1.03791,   9.68639E-06,   1.01643E+03
C:/ALETube/PressureUpdate/LargeStep/DeformErode/JobErode.odb,Step-1,Increment      4: Step Time =,    40.00,"TUBE-1",         13815,   5.87785E-03,   8.09017E-03,       1.05000,NA,NA,"",   10.0098E-03,            0.,       1.05041,   9.80327E-06,   1.02869E+03
C:/ALETube/PressureUpdate/LargeStep/DeformErode/JobErode.odb,Step-1,Increment      4: Step Time =,    40.00,"TUBE-1",         13781,   7.07107E-03,   7.07107E-03,       1.05000,NA,NA,"",   10.0098E-03,            0.,       1.05041,   9.80483E-06,   1.02931E+03
C:/ALETube/PressureUpdate/LargeStep/DeformErode/JobErode.odb,Step-1,Increment      4: Step Time =,    40.00,"TUBE-1",         13979,   5.87785E-03,   8.09017E-03,        1.0625,NA,NA,"",   10.0099E-03,  -867.362E-21,       1.06290,   9.92016E-06,   1.04094E+03
C:/ALETube/PressureUpdate/LargeStep/DeformErode/JobErode.odb,Step-1,Increment      4: Step Time =,    40.00,"TUBE-1",         13945,   7.07107E-03,   7.07107E-03,        1.0625,NA,NA,"",   10.0099E-03,            0.,       1.06290,   9.92174E-06,   1.04158E+03
C:/ALETube/PressureUpdate/LargeStep/DeformErode/JobErode.odb,Step-1,Increment      4: Step Time =,    40.00,"TUBE-1",         14109,   7.07107E-03,   7.07107E-03,       1.07500,NA,NA,"",   10.0100E-03,            0.,       1.07540,   10.0386E-06,   1.05384E+03
C:/ALETube/PressureUpdate/LargeStep/DeformErode/JobErode.odb,Step-1,Increment      4: Step Time =,    40.00,"TUBE-1",         14143,   5.87785E-03,   8.09017E-03,       1.07500,NA,NA,"",   10.0100E-03,            0.,       1.07540,   10.0370E-06,   1.05320E+03
C:/ALETube/PressureUpdate/LargeStep/DeformErode/JobErode.odb,Step-1,Increment      4: Step Time =,    40.00,"TUBE-1",         14307,   5.87785E-03,   8.09017E-03,       1.08750,NA,NA,"",   10.0102E-03,            0.,       1.08789,   10.1539E-06,   1.06546E+03
C:/ALETube/PressureUpdate/LargeStep/DeformErode/JobErode.odb,Step-1,Increment      4: Step Time =,    40.00,"TUBE-1",         14273,   7.07107E-03,   7.07107E-03,       1.08750,NA,NA,"",   10.0102E-03,            0.,       1.08789,   10.1556E-06,   1.06611E+03
C:/ALETube/PressureUpdate/LargeStep/DeformErode/JobErode.odb,Step-1,Increment      4: Step Time =,    40.00,"TUBE-1",         14471,   5.87785E-03,   8.09017E-03,       1.10000,NA,NA,"",   10.0103E-03,            0.,       1.10039,   10.2708E-06,   1.07771E+03
C:/ALETube/PressureUpdate/LargeStep/DeformErode/JobErode.odb,Step-1,Increment      4: Step Time =,    40.00,"TUBE-1",         14437,   7.07107E-03,   7.07107E-03,       1.10000,NA,NA,"",   10.0103E-03,            0.,       1.10039,   10.2725E-06,   1.07837E+03
C:/ALETube/PressureUpdate/LargeStep/DeformErode/JobErode.odb,Step-1,Increment      4: Step Time =,    40.00,"TUBE-1",         14635,   5.87785E-03,   8.09017E-03,       1.11250,NA,NA,"",   10.0104E-03,            0.,       1.11289,   10.3877E-06,   1.08997E+03
C:/ALETube/PressureUpdate/LargeStep/DeformErode/JobErode.odb,Step-1,Increment      4: Step Time =,    40.00,"TUBE-1",         14601,   7.07107E-03,   7.07107E-03,       1.11250,NA,NA,"",   10.0104E-03,            0.,       1.11289,   10.3894E-06,   1.09064E+03
C:/ALETube/PressureUpdate/LargeStep/DeformErode/JobErode.odb,Step-1,Increment      4: Step Time =,    40.00,"TUBE-1",         14799,   5.87785E-03,   8.09017E-03,         1.125,NA,NA,"",   10.0105E-03,            0.,       1.12538,   10.5046E-06,   1.10223E+03
C:/ALETube/PressureUpdate/LargeStep/DeformErode/JobErode.odb,Step-1,Increment      4: Step Time =,    40.00,"TUBE-1",         14765,   7.07107E-03,   7.07107E-03,         1.125,NA,NA,"",   10.0105E-03,            0.,       1.12538,   10.5063E-06,   1.10290E+03
C:/ALETube/PressureUpdate/LargeStep/DeformErode/JobErode.odb,Step-1,Increment      4: Step Time =,    40.00,"TUBE-1",         14929,   7.07107E-03,   7.07107E-03,       1.13750,NA,NA,"",   10.0106E-03,            0.,       1.13788,   10.6232E-06,   1.11517E+03
C:/ALETube/PressureUpdate/LargeStep/DeformErode/JobErode.odb,Step-1,Increment      4: Step Time =,    40.00,"TUBE-1",         14963,   5.87785E-03,   8.09017E-03,       1.13750,NA,NA,"",   10.0106E-03,  -867.362E-21,       1.13788,   10.6215E-06,   1.11449E+03
C:/ALETube/PressureUpdate/LargeStep/DeformErode/JobErode.odb,Step-1,Increment      4: Step Time =,    40.00,"TUBE-1",         15127,   5.87785E-03,   8.09017E-03,       1.15000,NA,NA,"",   10.0107E-03,            0.,       1.15037,   10.7385E-06,   1.12675E+03
C:/ALETube/PressureUpdate/LargeStep/DeformErode/JobErode.odb,Step-1,Increment      4: Step Time =,    40.00,"TUBE-1",         15093,   7.07107E-03,   7.07107E-03,       1.15000,NA,NA,"",   10.0107E-03,            0.,       1.15037,   10.7402E-06,   1.12743E+03
C:/ALETube/PressureUpdate/LargeStep/DeformErode/JobErode.odb,Step-1,Increment      4: Step Time =,    40.00,"TUBE-1",         15291,   5.87785E-03,   8.09017E-03,       1.16250,NA,NA,"",   10.0109E-03,  -867.362E-21,       1.16287,   10.8554E-06,   1.13900E+03
C:/ALETube/PressureUpdate/LargeStep/DeformErode/JobErode.odb,Step-1,Increment      4: Step Time =,    40.00,"TUBE-1",         15257,   7.07107E-03,   7.07107E-03,       1.16250,NA,NA,"",   10.0109E-03,            0.,       1.16287,   10.8571E-06,   1.13970E+03
C:/ALETube/PressureUpdate/LargeStep/DeformErode/JobErode.odb,Step-1,Increment      4: Step Time =,    40.00,"TUBE-1",         15455,   5.87785E-03,   8.09017E-03,       1.17500,NA,NA,"",   10.0110E-03,  -867.362E-21,       1.17537,   10.9723E-06,   1.15126E+03
C:/ALETube/PressureUpdate/LargeStep/DeformErode/JobErode.odb,Step-1,Increment      4: Step Time =,    40.00,"TUBE-1",         15421,   7.07107E-03,   7.07107E-03,       1.17500,NA,NA,"",   10.0110E-03,            0.,       1.17537,   10.9741E-06,   1.15196E+03
C:/ALETube/PressureUpdate/LargeStep/DeformErode/JobErode.odb,Step-1,Increment      4: Step Time =,    40.00,"TUBE-1",         15619,   5.87785E-03,   8.09017E-03,        1.1875,NA,NA,"",   10.0111E-03,  -867.362E-21,       1.18786,   11.0892E-06,   1.16352E+03
C:/ALETube/PressureUpdate/LargeStep/DeformErode/JobErode.odb,Step-1,Increment      4: Step Time =,    40.00,"TUBE-1",         15585,   7.07107E-03,   7.07107E-03,        1.1875,NA,NA,"",   10.0111E-03,            0.,       1.18786,   11.0910E-06,   1.16423E+03
C:/ALETube/PressureUpdate/LargeStep/DeformErode/JobErode.odb,Step-1,Increment      4: Step Time =,    40.00,"TUBE-1",         15749,   7.07107E-03,   7.07107E-03,       1.20000,NA,NA,"",   10.0112E-03,            0.,       1.20036,   11.2079E-06,   1.17650E+03
C:/ALETube/PressureUpdate/LargeStep/DeformErode/JobErode.odb,Step-1,Increment      4: Step Time =,    40.00,"TUBE-1",         15783,   5.87785E-03,   8.09017E-03,       1.20000,NA,NA,"",   10.0112E-03,            0.,       1.20036,   11.2062E-06,   1.17578E+03
C:/ALETube/PressureUpdate/LargeStep/DeformErode/JobErode.odb,Step-1,Increment      4: Step Time =,    40.00,"TUBE-1",         15947,   5.87785E-03,   8.09017E-03,       1.21250,NA,NA,"",   10.0113E-03,            0.,       1.21285,   11.3231E-06,   1.18804E+03
C:/ALETube/PressureUpdate/LargeStep/DeformErode/JobErode.odb,Step-1,Increment      4: Step Time =,    40.00,"TUBE-1",         15913,   7.07107E-03,   7.07107E-03,       1.21250,NA,NA,"",   10.0113E-03,            0.,       1.21285,   11.3249E-06,   1.18876E+03
C:/ALETube/PressureUpdate/LargeStep/DeformErode/JobErode.odb,Step-1,Increment      4: Step Time =,    40.00,"TUBE-1",         16111,   5.87785E-03,   8.09017E-03,       1.22500,NA,NA,"",   10.0114E-03,  -867.362E-21,       1.22535,   11.4400E-06,   1.20030E+03
C:/ALETube/PressureUpdate/LargeStep/DeformErode/JobErode.odb,Step-1,Increment      4: Step Time =,    40.00,"TUBE-1",         16077,   7.07107E-03,   7.07107E-03,       1.22500,NA,NA,"",   10.0114E-03,            0.,       1.22535,   11.4419E-06,   1.20103E+03
C:/ALETube/PressureUpdate/LargeStep/DeformErode/JobErode.odb,Step-1,Increment      4: Step Time =,    40.00,"TUBE-1",         16275,   5.87785E-03,   8.09017E-03,       1.23750,NA,NA,"",   10.0116E-03,  -867.362E-21,       1.23785,   11.5570E-06,   1.21256E+03
C:/ALETube/PressureUpdate/LargeStep/DeformErode/JobErode.odb,Step-1,Increment      4: Step Time =,    40.00,"TUBE-1",         16241,   7.07107E-03,   7.07107E-03,       1.23750,NA,NA,"",   10.0116E-03,            0.,       1.23785,   11.5588E-06,   1.21330E+03
C:/ALETube/PressureUpdate/LargeStep/DeformErode/JobErode.odb,Step-1,Increment      4: Step Time =,    40.00,"TUBE-1",         16439,   5.87785E-03,   8.09017E-03,          1.25,NA,NA,"",   10.0117E-03,            0.,       1.25034,   11.6739E-06,   1.22482E+03
C:/ALETube/PressureUpdate/LargeStep/DeformErode/JobErode.odb,Step-1,Increment      4: Step Time =,    40.00,"TUBE-1",         16405,   7.07107E-03,   7.07107E-03,          1.25,NA,NA,"",   10.0117E-03,            0.,       1.25034,   11.6758E-06,   1.22557E+03
C:/ALETube/PressureUpdate/LargeStep/DeformErode/JobErode.odb,Step-1,Increment      4: Step Time =,    40.00,"TUBE-1",         16569,   7.07107E-03,   7.07107E-03,       1.26250,NA,NA,"",   10.0118E-03,            0.,       1.26284,   11.7928E-06,   1.23783E+03
C:/ALETube/PressureUpdate/LargeStep/DeformErode/JobErode.odb,Step-1,Increment      4: Step Time =,    40.00,"TUBE-1",         16603,   5.87785E-03,   8.09017E-03,       1.26250,NA,NA,"",   10.0118E-03,            0.,       1.26284,   11.7909E-06,   1.23708E+03
C:/ALETube/PressureUpdate/LargeStep/DeformErode/JobErode.odb,Step-1,Increment      4: Step Time =,    40.00,"TUBE-1",         16767,   5.87785E-03,   8.09017E-03,       1.27500,NA,NA,"",   10.0119E-03,            0.,       1.27533,   11.9078E-06,   1.24934E+03
C:/ALETube/PressureUpdate/LargeStep/DeformErode/JobErode.odb,Step-1,Increment      4: Step Time =,    40.00,"TUBE-1",         16733,   7.07107E-03,   7.07107E-03,       1.27500,NA,NA,"",   10.0119E-03,            0.,       1.27533,   11.9097E-06,   1.25010E+03
C:/ALETube/PressureUpdate/LargeStep/DeformErode/JobErode.odb,Step-1,Increment      4: Step Time =,    40.00,"TUBE-1",         16931,   5.87785E-03,   8.09017E-03,       1.28750,NA,NA,"",   10.0120E-03,            0.,       1.28783,   12.0248E-06,   1.26160E+03
C:/ALETube/PressureUpdate/LargeStep/DeformErode/JobErode.odb,Step-1,Increment      4: Step Time =,    40.00,"TUBE-1",         16897,   7.07107E-03,   7.07107E-03,       1.28750,NA,NA,"",   10.0120E-03,            0.,       1.28783,   12.0267E-06,   1.26237E+03
C:/ALETube/PressureUpdate/LargeStep/DeformErode/JobErode.odb,Step-1,Increment      4: Step Time =,    40.00,"TUBE-1",         17095,   5.87785E-03,   8.09017E-03,       1.30000,NA,NA,"",   10.0121E-03,            0.,       1.30032,   12.1417E-06,   1.27386E+03
C:/ALETube/PressureUpdate/LargeStep/DeformErode/JobErode.odb,Step-1,Increment      4: Step Time =,    40.00,"TUBE-1",         17061,   7.07107E-03,   7.07107E-03,       1.30000,NA,NA,"",   10.0121E-03,            0.,       1.30032,   12.1437E-06,   1.27464E+03
C:/ALETube/PressureUpdate/LargeStep/DeformErode/JobErode.odb,Step-1,Increment      4: Step Time =,    40.00,"TUBE-1",         17259,   5.87785E-03,   8.09017E-03,        1.3125,NA,NA,"",   10.0123E-03,            0.,       1.31282,   12.2587E-06,   1.28612E+03
C:/ALETube/PressureUpdate/LargeStep/DeformErode/JobErode.odb,Step-1,Increment      4: Step Time =,    40.00,"TUBE-1",         17225,   7.07107E-03,   7.07107E-03,        1.3125,NA,NA,"",   10.0123E-03,            0.,       1.31282,   12.2607E-06,   1.28691E+03
C:/ALETube/PressureUpdate/LargeStep/DeformErode/JobErode.odb,Step-1,Increment      4: Step Time =,    40.00,"TUBE-1",         17389,   7.07107E-03,   7.07107E-03,       1.32500,NA,NA,"",   10.0124E-03,            0.,       1.32531,   12.3777E-06,   1.29918E+03
C:/ALETube/PressureUpdate/LargeStep/DeformErode/JobErode.odb,Step-1,Increment      4: Step Time =,    40.00,"TUBE-1",         17423,   5.87785E-03,   8.09017E-03,       1.32500,NA,NA,"",   10.0124E-03,            0.,       1.32531,   12.3757E-06,   1.29839E+03
C:/ALETube/PressureUpdate/LargeStep/DeformErode/JobErode.odb,Step-1,Increment      4: Step Time =,    40.00,"TUBE-1",         17587,   5.87785E-03,   8.09017E-03,       1.33750,NA,NA,"",   10.0125E-03,            0.,       1.33781,   12.4927E-06,   1.31065E+03
C:/ALETube/PressureUpdate/LargeStep/DeformErode/JobErode.odb,Step-1,Increment      4: Step Time =,    40.00,"TUBE-1",         17553,   7.07107E-03,   7.07107E-03,       1.33750,NA,NA,"",   10.0125E-03,            0.,       1.33781,   12.4947E-06,   1.31145E+03
C:/ALETube/PressureUpdate/LargeStep/DeformErode/JobErode.odb,Step-1,Increment      4: Step Time =,    40.00,"TUBE-1",         17751,   5.87785E-03,   8.09017E-03,       1.35000,NA,NA,"",   10.0126E-03,            0.,       1.35030,   12.6096E-06,   1.32291E+03
C:/ALETube/PressureUpdate/LargeStep/DeformErode/JobErode.odb,Step-1,Increment      4: Step Time =,    40.00,"TUBE-1",         17717,   7.07107E-03,   7.07107E-03,       1.35000,NA,NA,"",   10.0126E-03,            0.,       1.35030,   12.6117E-06,   1.32372E+03
C:/ALETube/PressureUpdate/LargeStep/DeformErode/JobErode.odb,Step-1,Increment      4: Step Time =,    40.00,"TUBE-1",         17915,   5.87785E-03,   8.09017E-03,       1.36250,NA,NA,"",   10.0127E-03,  -867.362E-21,       1.36280,   12.7266E-06,   1.33517E+03
C:/ALETube/PressureUpdate/LargeStep/DeformErode/JobErode.odb,Step-1,Increment      4: Step Time =,    40.00,"TUBE-1",         17881,   7.07107E-03,   7.07107E-03,       1.36250,NA,NA,"",   10.0127E-03,            0.,       1.36280,   12.7287E-06,   1.33599E+03
C:/ALETube/PressureUpdate/LargeStep/DeformErode/JobErode.odb,Step-1,Increment      4: Step Time =,    40.00,"TUBE-1",         18079,   5.87785E-03,   8.09017E-03,         1.375,NA,NA,"",   10.0128E-03,  -867.362E-21,       1.37530,   12.8436E-06,   1.34744E+03
C:/ALETube/PressureUpdate/LargeStep/DeformErode/JobErode.odb,Step-1,Increment      4: Step Time =,    40.00,"TUBE-1",         18045,   7.07107E-03,   7.07107E-03,         1.375,NA,NA,"",   10.0128E-03,            0.,       1.37530,   12.8457E-06,   1.34826E+03
C:/ALETube/PressureUpdate/LargeStep/DeformErode/JobErode.odb,Step-1,Increment      4: Step Time =,    40.00,"TUBE-1",         18209,   7.07107E-03,   7.07107E-03,       1.38750,NA,NA,"",   10.0130E-03,            0.,       1.38779,   12.9627E-06,   1.36053E+03
C:/ALETube/PressureUpdate/LargeStep/DeformErode/JobErode.odb,Step-1,Increment      4: Step Time =,    40.00,"TUBE-1",         18243,   5.87785E-03,   8.09017E-03,       1.38750,NA,NA,"",   10.0130E-03,            0.,       1.38779,   12.9606E-06,   1.35970E+03
C:/ALETube/PressureUpdate/LargeStep/DeformErode/JobErode.odb,Step-1,Increment      4: Step Time =,    40.00,"TUBE-1",         18407,   5.87785E-03,   8.09017E-03,       1.40000,NA,NA,"",   10.0131E-03,   867.362E-21,       1.40029,   13.0776E-06,   1.37196E+03
C:/ALETube/PressureUpdate/LargeStep/DeformErode/JobErode.odb,Step-1,Increment      4: Step Time =,    40.00,"TUBE-1",         18373,   7.07107E-03,   7.07107E-03,       1.40000,NA,NA,"",   10.0131E-03,            0.,       1.40029,   13.0797E-06,   1.37280E+03
C:/ALETube/PressureUpdate/LargeStep/DeformErode/JobErode.odb,Step-1,Increment      4: Step Time =,    40.00,"TUBE-1",         18571,   5.87785E-03,   8.09017E-03,       1.41250,NA,NA,"",   10.0132E-03,            0.,       1.41278,   13.1946E-06,   1.38422E+03
C:/ALETube/PressureUpdate/LargeStep/DeformErode/JobErode.odb,Step-1,Increment      4: Step Time =,    40.00,"TUBE-1",         18537,   7.07107E-03,   7.07107E-03,       1.41250,NA,NA,"",   10.0132E-03,            0.,       1.41278,   13.1967E-06,   1.38507E+03
C:/ALETube/PressureUpdate/LargeStep/DeformErode/JobErode.odb,Step-1,Increment      4: Step Time =,    40.00,"TUBE-1",         18735,   5.87785E-03,   8.09017E-03,       1.42500,NA,NA,"",   10.0133E-03,            0.,       1.42528,   13.3116E-06,   1.39649E+03
C:/ALETube/PressureUpdate/LargeStep/DeformErode/JobErode.odb,Step-1,Increment      4: Step Time =,    40.00,"TUBE-1",         18701,   7.07107E-03,   7.07107E-03,       1.42500,NA,NA,"",   10.0133E-03,            0.,       1.42528,   13.3137E-06,   1.39734E+03
C:/ALETube/PressureUpdate/LargeStep/DeformErode/JobErode.odb,Step-1,Increment      4: Step Time =,    40.00,"TUBE-1",         18899,   5.87785E-03,   8.09017E-03,        1.4375,NA,NA,"",   10.0134E-03,  -867.362E-21,       1.43777,   13.4286E-06,   1.40875E+03
C:/ALETube/PressureUpdate/LargeStep/DeformErode/JobErode.odb,Step-1,Increment      4: Step Time =,    40.00,"TUBE-1",         18865,   7.07107E-03,   7.07107E-03,        1.4375,NA,NA,"",   10.0134E-03,            0.,       1.43777,   13.4308E-06,   1.40961E+03
C:/ALETube/PressureUpdate/LargeStep/DeformErode/JobErode.odb,Step-1,Increment      4: Step Time =,    40.00,"TUBE-1",         19029,   7.07107E-03,   7.07107E-03,       1.45000,NA,NA,"",   10.0135E-03,            0.,       1.45027,   13.5478E-06,   1.42188E+03
C:/ALETube/PressureUpdate/LargeStep/DeformErode/JobErode.odb,Step-1,Increment      4: Step Time =,    40.00,"TUBE-1",         19063,   5.87785E-03,   8.09017E-03,       1.45000,NA,NA,"",   10.0135E-03,            0.,       1.45027,   13.5456E-06,   1.42102E+03
C:/ALETube/PressureUpdate/LargeStep/DeformErode/JobErode.odb,Step-1,Increment      4: Step Time =,    40.00,"TUBE-1",         19227,   5.87785E-03,   8.09017E-03,       1.46250,NA,NA,"",   10.0137E-03,  -867.362E-21,       1.46276,   13.6627E-06,   1.43328E+03
C:/ALETube/PressureUpdate/LargeStep/DeformErode/JobErode.odb,Step-1,Increment      4: Step Time =,    40.00,"TUBE-1",         19193,   7.07107E-03,   7.07107E-03,       1.46250,NA,NA,"",   10.0137E-03,            0.,       1.46276,   13.6648E-06,   1.43415E+03
C:/ALETube/PressureUpdate/LargeStep/DeformErode/JobErode.odb,Step-1,Increment      4: Step Time =,    40.00,"TUBE-1",         19391,   5.87785E-03,   8.09017E-03,       1.47500,NA,NA,"",   10.0138E-03,            0.,       1.47526,   13.7797E-06,   1.44555E+03
C:/ALETube/PressureUpdate/LargeStep/DeformErode/JobErode.odb,Step-1,Increment      4: Step Time =,    40.00,"TUBE-1",         19357,   7.07107E-03,   7.07107E-03,       1.47500,NA,NA,"",   10.0138E-03,            0.,       1.47526,   13.7819E-06,   1.44643E+03
C:/ALETube/PressureUpdate/LargeStep/DeformErode/JobErode.odb,Step-1,Increment      4: Step Time =,    40.00,"TUBE-1",         19555,   5.87785E-03,   8.09017E-03,       1.48750,NA,NA,"",   10.0139E-03,            0.,       1.48775,   13.8967E-06,   1.45781E+03
C:/ALETube/PressureUpdate/LargeStep/DeformErode/JobErode.odb,Step-1,Increment      4: Step Time =,    40.00,"TUBE-1",         19521,   7.07107E-03,   7.07107E-03,       1.48750,NA,NA,"",   10.0139E-03,            0.,       1.48775,   13.8989E-06,   1.45870E+03
C:/ALETube/PressureUpdate/LargeStep/DeformErode/JobErode.odb,Step-1,Increment      4: Step Time =,    40.00,"TUBE-1",         19719,   5.87785E-03,   8.09017E-03,           1.5,NA,NA,"",   10.0140E-03,            0.,       1.50024,   14.0137E-06,   1.47007E+03
C:/ALETube/PressureUpdate/LargeStep/DeformErode/JobErode.odb,Step-1,Increment      4: Step Time =,    40.00,"TUBE-1",         19685,   7.07107E-03,   7.07107E-03,           1.5,NA,NA,"",   10.0140E-03,            0.,       1.50024,   14.0160E-06,   1.47097E+03
C:/ALETube/PressureUpdate/LargeStep/DeformErode/JobErode.odb,Step-1,Increment      4: Step Time =,    40.00,"TUBE-1",         19849,   7.07107E-03,   7.07107E-03,       1.51250,NA,NA,"",   10.0141E-03,            0.,       1.51274,   14.1330E-06,   1.48324E+03
C:/ALETube/PressureUpdate/LargeStep/DeformErode/JobErode.odb,Step-1,Increment      4: Step Time =,    40.00,"TUBE-1",         19883,   5.87785E-03,   8.09017E-03,       1.51250,NA,NA,"",   10.0141E-03,  -867.362E-21,       1.51274,   14.1308E-06,   1.48234E+03
C:/ALETube/PressureUpdate/LargeStep/DeformErode/JobErode.odb,Step-1,Increment      4: Step Time =,    40.00,"TUBE-1",         20047,   5.87785E-03,   8.09017E-03,       1.52500,NA,NA,"",   10.0142E-03,   867.362E-21,       1.52523,   14.2478E-06,   1.49461E+03
C:/ALETube/PressureUpdate/LargeStep/DeformErode/JobErode.odb,Step-1,Increment      4: Step Time =,    40.00,"TUBE-1",         20013,   7.07107E-03,   7.07107E-03,       1.52500,NA,NA,"",   10.0142E-03,            0.,       1.52523,   14.2501E-06,   1.49552E+03
C:/ALETube/PressureUpdate/LargeStep/DeformErode/JobErode.odb,Step-1,Increment      4: Step Time =,    40.00,"TUBE-1",         20211,   5.87785E-03,   8.09017E-03,       1.53750,NA,NA,"",   10.0144E-03,            0.,       1.53773,   14.3649E-06,   1.50687E+03
C:/ALETube/PressureUpdate/LargeStep/DeformErode/JobErode.odb,Step-1,Increment      4: Step Time =,    40.00,"TUBE-1",         20177,   7.07107E-03,   7.07107E-03,       1.53750,NA,NA,"",   10.0144E-03,            0.,       1.53773,   14.3672E-06,   1.50779E+03
C:/ALETube/PressureUpdate/LargeStep/DeformErode/JobErode.odb,Step-1,Increment      4: Step Time =,    40.00,"TUBE-1",         20375,   5.87785E-03,   8.09017E-03,       1.55000,NA,NA,"",   10.0145E-03,            0.,       1.55022,   14.4819E-06,   1.51914E+03
C:/ALETube/PressureUpdate/LargeStep/DeformErode/JobErode.odb,Step-1,Increment      4: Step Time =,    40.00,"TUBE-1",         20341,   7.07107E-03,   7.07107E-03,       1.55000,NA,NA,"",   10.0145E-03,            0.,       1.55022,   14.4842E-06,   1.52006E+03
C:/ALETube/PressureUpdate/LargeStep/DeformErode/JobErode.odb,Step-1,Increment      4: Step Time =,    40.00,"TUBE-1",         20539,   5.87785E-03,   8.09017E-03,        1.5625,NA,NA,"",   10.0146E-03,            0.,       1.56272,   14.5990E-06,   1.53140E+03
C:/ALETube/PressureUpdate/LargeStep/DeformErode/JobErode.odb,Step-1,Increment      4: Step Time =,    40.00,"TUBE-1",         20505,   7.07107E-03,   7.07107E-03,        1.5625,NA,NA,"",   10.0146E-03,            0.,       1.56272,   14.6013E-06,   1.53234E+03
C:/ALETube/PressureUpdate/LargeStep/DeformErode/JobErode.odb,Step-1,Increment      4: Step Time =,    40.00,"TUBE-1",         20669,   7.07107E-03,   7.07107E-03,       1.57500,NA,NA,"",   10.0147E-03,            0.,       1.57521,   14.7184E-06,   1.54461E+03
C:/ALETube/PressureUpdate/LargeStep/DeformErode/JobErode.odb,Step-1,Increment      4: Step Time =,    40.00,"TUBE-1",         20703,   5.87785E-03,   8.09017E-03,       1.57500,NA,NA,"",   10.0147E-03,            0.,       1.57521,   14.7160E-06,   1.54367E+03
C:/ALETube/PressureUpdate/LargeStep/DeformErode/JobErode.odb,Step-1,Increment      4: Step Time =,    40.00,"TUBE-1",         20867,   5.87785E-03,   8.09017E-03,       1.58750,NA,NA,"",   10.0148E-03,            0.,       1.58771,   14.8331E-06,   1.55594E+03
C:/ALETube/PressureUpdate/LargeStep/DeformErode/JobErode.odb,Step-1,Increment      4: Step Time =,    40.00,"TUBE-1",         20833,   7.07107E-03,   7.07107E-03,       1.58750,NA,NA,"",   10.0148E-03,            0.,       1.58771,   14.8354E-06,   1.55688E+03
C:/ALETube/PressureUpdate/LargeStep/DeformErode/JobErode.odb,Step-1,Increment      4: Step Time =,    40.00,"TUBE-1",         21031,   5.87785E-03,   8.09017E-03,       1.60000,NA,NA,"",   10.0150E-03,            0.,       1.60020,   14.9501E-06,   1.56820E+03
C:/ALETube/PressureUpdate/LargeStep/DeformErode/JobErode.odb,Step-1,Increment      4: Step Time =,    40.00,"TUBE-1",         20997,   7.07107E-03,   7.07107E-03,       1.60000,NA,NA,"",   10.0150E-03,            0.,       1.60020,   14.9525E-06,   1.56916E+03
C:/ALETube/PressureUpdate/LargeStep/DeformErode/JobErode.odb,Step-1,Increment      4: Step Time =,    40.00,"TUBE-1",         21195,   5.87785E-03,   8.09017E-03,       1.61250,NA,NA,"",   10.0151E-03,            0.,       1.61270,   15.0672E-06,   1.58047E+03
C:/ALETube/PressureUpdate/LargeStep/DeformErode/JobErode.odb,Step-1,Increment      4: Step Time =,    40.00,"TUBE-1",         21161,   7.07107E-03,   7.07107E-03,       1.61250,NA,NA,"",   10.0151E-03,            0.,       1.61270,   15.0696E-06,   1.58143E+03
C:/ALETube/PressureUpdate/LargeStep/DeformErode/JobErode.odb,Step-1,Increment      4: Step Time =,    40.00,"TUBE-1",         21359,   5.87785E-03,   8.09017E-03,         1.625,NA,NA,"",   10.0152E-03,            0.,       1.62519,   15.1843E-06,   1.59274E+03
C:/ALETube/PressureUpdate/LargeStep/DeformErode/JobErode.odb,Step-1,Increment      4: Step Time =,    40.00,"TUBE-1",         21325,   7.07107E-03,   7.07107E-03,         1.625,NA,NA,"",   10.0152E-03,            0.,       1.62519,   15.1867E-06,   1.59371E+03
C:/ALETube/PressureUpdate/LargeStep/DeformErode/JobErode.odb,Step-1,Increment      4: Step Time =,    40.00,"TUBE-1",         21489,   7.07107E-03,   7.07107E-03,       1.63750,NA,NA,"",   10.0153E-03,            0.,       1.63768,   15.3038E-06,   1.60598E+03
C:/ALETube/PressureUpdate/LargeStep/DeformErode/JobErode.odb,Step-1,Increment      4: Step Time =,    40.00,"TUBE-1",         21523,   5.87785E-03,   8.09017E-03,       1.63750,NA,NA,"",   10.0153E-03,  -867.362E-21,       1.63768,   15.3014E-06,   1.60501E+03
C:/ALETube/PressureUpdate/LargeStep/DeformErode/JobErode.odb,Step-1,Increment      4: Step Time =,    40.00,"TUBE-1",         21687,   5.87785E-03,   8.09017E-03,       1.65000,NA,NA,"",   10.0154E-03,            0.,       1.65018,   15.4184E-06,   1.61727E+03
C:/ALETube/PressureUpdate/LargeStep/DeformErode/JobErode.odb,Step-1,Increment      4: Step Time =,    40.00,"TUBE-1",         21653,   7.07107E-03,   7.07107E-03,       1.65000,NA,NA,"",   10.0154E-03,            0.,       1.65018,   15.4209E-06,   1.61826E+03
C:/ALETube/PressureUpdate/LargeStep/DeformErode/JobErode.odb,Step-1,Increment      4: Step Time =,    40.00,"TUBE-1",         21851,   5.87785E-03,   8.09017E-03,       1.66250,NA,NA,"",   10.0155E-03,            0.,       1.66267,   15.5355E-06,   1.62954E+03
C:/ALETube/PressureUpdate/LargeStep/DeformErode/JobErode.odb,Step-1,Increment      4: Step Time =,    40.00,"TUBE-1",         21817,   7.07107E-03,   7.07107E-03,       1.66250,NA,NA,"",   10.0155E-03,            0.,       1.66267,   15.5380E-06,   1.63053E+03
C:/ALETube/PressureUpdate/LargeStep/DeformErode/JobErode.odb,Step-1,Increment      4: Step Time =,    40.00,"TUBE-1",         22015,   5.87785E-03,   8.09017E-03,       1.67500,NA,NA,"",   10.0157E-03,            0.,       1.67517,   15.6526E-06,   1.64181E+03
C:/ALETube/PressureUpdate/LargeStep/DeformErode/JobErode.odb,Step-1,Increment      4: Step Time =,    40.00,"TUBE-1",         21981,   7.07107E-03,   7.07107E-03,       1.67500,NA,NA,"",   10.0157E-03,            0.,       1.67517,   15.6551E-06,   1.64281E+03
C:/ALETube/PressureUpdate/LargeStep/DeformErode/JobErode.odb,Step-1,Increment      4: Step Time =,    40.00,"TUBE-1",         22179,   5.87785E-03,   8.09017E-03,        1.6875,NA,NA,"",   10.0158E-03,  -867.362E-21,       1.68766,   15.7697E-06,   1.65408E+03
C:/ALETube/PressureUpdate/LargeStep/DeformErode/JobErode.odb,Step-1,Increment      4: Step Time =,    40.00,"TUBE-1",         22145,   7.07107E-03,   7.07107E-03,        1.6875,NA,NA,"",   10.0158E-03,            0.,       1.68766,   15.7722E-06,   1.65509E+03
C:/ALETube/PressureUpdate/LargeStep/DeformErode/JobErode.odb,Step-1,Increment      4: Step Time =,    40.00,"TUBE-1",         22309,   7.07107E-03,   7.07107E-03,       1.70000,NA,NA,"",   10.0159E-03,            0.,       1.70016,   15.8893E-06,   1.66736E+03
C:/ALETube/PressureUpdate/LargeStep/DeformErode/JobErode.odb,Step-1,Increment      4: Step Time =,    40.00,"TUBE-1",         22343,   5.87785E-03,   8.09017E-03,       1.70000,NA,NA,"",   10.0159E-03,  -867.362E-21,       1.70016,   15.8868E-06,   1.66635E+03
C:/ALETube/PressureUpdate/LargeStep/DeformErode/JobErode.odb,Step-1,Increment      4: Step Time =,    40.00,"TUBE-1",         22507,   5.87785E-03,   8.09017E-03,       1.71250,NA,NA,"",   10.0160E-03,            0.,       1.71265,   16.0039E-06,   1.67862E+03
C:/ALETube/PressureUpdate/LargeStep/DeformErode/JobErode.odb,Step-1,Increment      4: Step Time =,    40.00,"TUBE-1",         22473,   7.07107E-03,   7.07107E-03,       1.71250,NA,NA,"",   10.0160E-03,            0.,       1.71265,   16.0065E-06,   1.67964E+03
C:/ALETube/PressureUpdate/LargeStep/DeformErode/JobErode.odb,Step-1,Increment      4: Step Time =,    40.00,"TUBE-1",         22671,   5.87785E-03,   8.09017E-03,       1.72500,NA,NA,"",   10.0161E-03,            0.,       1.72514,   16.1210E-06,   1.69089E+03
C:/ALETube/PressureUpdate/LargeStep/DeformErode/JobErode.odb,Step-1,Increment      4: Step Time =,    40.00,"TUBE-1",         22637,   7.07107E-03,   7.07107E-03,       1.72500,NA,NA,"",   10.0161E-03,            0.,       1.72514,   16.1236E-06,   1.69192E+03
C:/ALETube/PressureUpdate/LargeStep/DeformErode/JobErode.odb,Step-1,Increment      4: Step Time =,    40.00,"TUBE-1",         22835,   5.87785E-03,   8.09017E-03,       1.73750,NA,NA,"",   10.0162E-03,            0.,       1.73764,   16.2382E-06,   1.70316E+03
C:/ALETube/PressureUpdate/LargeStep/DeformErode/JobErode.odb,Step-1,Increment      4: Step Time =,    40.00,"TUBE-1",         22801,   7.07107E-03,   7.07107E-03,       1.73750,NA,NA,"",   10.0162E-03,            0.,       1.73764,   16.2407E-06,   1.70419E+03
C:/ALETube/PressureUpdate/LargeStep/DeformErode/JobErode.odb,Step-1,Increment      4: Step Time =,    40.00,"TUBE-1",         22999,   5.87785E-03,   8.09017E-03,          1.75,NA,NA,"",   10.0164E-03,  -867.362E-21,       1.75013,   16.3552E-06,   1.71542E+03
C:/ALETube/PressureUpdate/LargeStep/DeformErode/JobErode.odb,Step-1,Increment      4: Step Time =,    40.00,"TUBE-1",         22965,   7.07107E-03,   7.07107E-03,          1.75,NA,NA,"",   10.0164E-03,            0.,       1.75013,   16.3578E-06,   1.71647E+03
C:/ALETube/PressureUpdate/LargeStep/DeformErode/JobErode.odb,Step-1,Increment      4: Step Time =,    40.00,"TUBE-1",         23129,   7.07107E-03,   7.07107E-03,       1.76250,NA,NA,"",   10.0165E-03,            0.,       1.76262,   16.4747E-06,   1.72872E+03
C:/ALETube/PressureUpdate/LargeStep/DeformErode/JobErode.odb,Step-1,Increment      4: Step Time =,    40.00,"TUBE-1",         23163,   5.87785E-03,   8.09017E-03,       1.76250,NA,NA,"",   10.0165E-03,   867.362E-21,       1.76262,   16.4721E-06,   1.72767E+03
C:/ALETube/PressureUpdate/LargeStep/DeformErode/JobErode.odb,Step-1,Increment      4: Step Time =,    40.00,"TUBE-1",         23327,   5.87785E-03,   8.09017E-03,       1.77500,NA,NA,"",   10.0166E-03,  -867.362E-21,       1.77512,   16.5913E-06,   1.74011E+03
C:/ALETube/PressureUpdate/LargeStep/DeformErode/JobErode.odb,Step-1,Increment      4: Step Time =,    40.00,"TUBE-1",         23293,   7.07107E-03,   7.07107E-03,       1.77500,NA,NA,"",   10.0166E-03,            0.,       1.77512,   16.5939E-06,   1.74117E+03
C:/ALETube/PressureUpdate/LargeStep/DeformErode/JobErode.odb,Step-1,Increment      4: Step Time =,    40.00,"TUBE-1",         23491,   5.87785E-03,   8.09017E-03,       1.78750,NA,NA,"",   10.0167E-03,            0.,       1.78761,   16.7031E-06,   1.75177E+03
C:/ALETube/PressureUpdate/LargeStep/DeformErode/JobErode.odb,Step-1,Increment      4: Step Time =,    40.00,"TUBE-1",         23457,   7.07107E-03,   7.07107E-03,       1.78750,NA,NA,"",   10.0167E-03,            0.,       1.78761,   16.7058E-06,   1.75284E+03
C:/ALETube/PressureUpdate/LargeStep/DeformErode/JobErode.odb,Step-1,Increment      4: Step Time =,    40.00,"TUBE-1",         23655,   5.87785E-03,   8.09017E-03,       1.80000,NA,NA,"",   10.0168E-03,            0.,       1.80011,   16.7963E-06,   1.76176E+03
C:/ALETube/PressureUpdate/LargeStep/DeformErode/JobErode.odb,Step-1,Increment      4: Step Time =,    40.00,"TUBE-1",         23621,   7.07107E-03,   7.07107E-03,       1.80000,NA,NA,"",   10.0168E-03,            0.,       1.80011,   16.7989E-06,   1.76284E+03
C:/ALETube/PressureUpdate/LargeStep/DeformErode/JobErode.odb,Step-1,Increment      4: Step Time =,    40.00,"TUBE-1",         23819,   5.87785E-03,   8.09017E-03,        1.8125,NA,NA,"",   10.0169E-03,   867.362E-21,       1.81260,   16.9151E-06,   1.77408E+03
C:/ALETube/PressureUpdate/LargeStep/DeformErode/JobErode.odb,Step-1,Increment      4: Step Time =,    40.00,"TUBE-1",         23785,   7.07107E-03,   7.07107E-03,        1.8125,NA,NA,"",   10.0169E-03,            0.,       1.81260,   16.9178E-06,   1.77516E+03
C:/ALETube/PressureUpdate/LargeStep/DeformErode/JobErode.odb,Step-1,Increment      4: Step Time =,    40.00,"TUBE-1",         23949,   7.07107E-03,   7.07107E-03,       1.82500,NA,NA,"",   10.0170E-03,            0.,       1.82509,   17.0365E-06,   1.78760E+03
C:/ALETube/PressureUpdate/LargeStep/DeformErode/JobErode.odb,Step-1,Increment      4: Step Time =,    40.00,"TUBE-1",         23983,   5.87785E-03,   8.09017E-03,       1.82500,NA,NA,"",   10.0170E-03,  -867.362E-21,       1.82509,   17.0338E-06,   1.78651E+03
C:/ALETube/PressureUpdate/LargeStep/DeformErode/JobErode.odb,Step-1,Increment      4: Step Time =,    40.00,"TUBE-1",         24147,   5.87785E-03,   8.09017E-03,       1.83750,NA,NA,"",   10.0172E-03,            0.,       1.83759,   17.1503E-06,   1.79871E+03
C:/ALETube/PressureUpdate/LargeStep/DeformErode/JobErode.odb,Step-1,Increment      4: Step Time =,    40.00,"TUBE-1",         24113,   7.07107E-03,   7.07107E-03,       1.83750,NA,NA,"",   10.0172E-03,            0.,       1.83759,   17.1530E-06,   1.79981E+03
C:/ALETube/PressureUpdate/LargeStep/DeformErode/JobErode.odb,Step-1,Increment      4: Step Time =,    40.00,"TUBE-1",         24311,   5.87785E-03,   8.09017E-03,       1.85000,NA,NA,"",   10.0173E-03,  -867.362E-21,       1.85008,   17.2675E-06,   1.81100E+03
C:/ALETube/PressureUpdate/LargeStep/DeformErode/JobErode.odb,Step-1,Increment      4: Step Time =,    40.00,"TUBE-1",         24277,   7.07107E-03,   7.07107E-03,       1.85000,NA,NA,"",   10.0173E-03,            0.,       1.85008,   17.2703E-06,   1.81210E+03
C:/ALETube/PressureUpdate/LargeStep/DeformErode/JobErode.odb,Step-1,Increment      4: Step Time =,    40.00,"TUBE-1",         24475,   5.87785E-03,   8.09017E-03,       1.86250,NA,NA,"",   10.0174E-03,            0.,       1.86257,   17.3847E-06,   1.82327E+03
C:/ALETube/PressureUpdate/LargeStep/DeformErode/JobErode.odb,Step-1,Increment      4: Step Time =,    40.00,"TUBE-1",         24441,   7.07107E-03,   7.07107E-03,       1.86250,NA,NA,"",   10.0174E-03,            0.,       1.86257,   17.3875E-06,   1.82438E+03
C:/ALETube/PressureUpdate/LargeStep/DeformErode/JobErode.odb,Step-1,Increment      4: Step Time =,    40.00,"TUBE-1",         24639,   5.87785E-03,   8.09017E-03,         1.875,NA,NA,"",   10.0175E-03,            0.,       1.87507,   17.5019E-06,   1.83554E+03
C:/ALETube/PressureUpdate/LargeStep/DeformErode/JobErode.odb,Step-1,Increment      4: Step Time =,    40.00,"TUBE-1",         24605,   7.07107E-03,   7.07107E-03,         1.875,NA,NA,"",   10.0175E-03,            0.,       1.87507,   17.5046E-06,   1.83666E+03
C:/ALETube/PressureUpdate/LargeStep/DeformErode/JobErode.odb,Step-1,Increment      4: Step Time =,    40.00,"TUBE-1",         24769,   7.07107E-03,   7.07107E-03,       1.88750,NA,NA,"",   10.0176E-03,            0.,       1.88756,   17.6218E-06,   1.84894E+03
C:/ALETube/PressureUpdate/LargeStep/DeformErode/JobErode.odb,Step-1,Increment      4: Step Time =,    40.00,"TUBE-1",         24803,   5.87785E-03,   8.09017E-03,       1.88750,NA,NA,"",   10.0176E-03,            0.,       1.88756,   17.6190E-06,   1.84782E+03
C:/ALETube/PressureUpdate/LargeStep/DeformErode/JobErode.odb,Step-1,Increment      4: Step Time =,    40.00,"TUBE-1",         24967,   5.87785E-03,   8.09017E-03,       1.90000,NA,NA,"",   10.0177E-03,            0.,       1.90005,   17.7362E-06,   1.86009E+03
C:/ALETube/PressureUpdate/LargeStep/DeformErode/JobErode.odb,Step-1,Increment      4: Step Time =,    40.00,"TUBE-1",         24933,   7.07107E-03,   7.07107E-03,       1.90000,NA,NA,"",   10.0177E-03,            0.,       1.90005,   17.7390E-06,   1.86122E+03
C:/ALETube/PressureUpdate/LargeStep/DeformErode/JobErode.odb,Step-1,Increment      4: Step Time =,    40.00,"TUBE-1",         25131,   5.87785E-03,   8.09017E-03,       1.91250,NA,NA,"",   10.0179E-03,   867.362E-21,       1.91255,   17.8534E-06,   1.87236E+03
C:/ALETube/PressureUpdate/LargeStep/DeformErode/JobErode.odb,Step-1,Increment      4: Step Time =,    40.00,"TUBE-1",         25097,   7.07107E-03,   7.07107E-03,       1.91250,NA,NA,"",   10.0179E-03,            0.,       1.91255,   17.8562E-06,   1.87350E+03
C:/ALETube/PressureUpdate/LargeStep/DeformErode/JobErode.odb,Step-1,Increment      4: Step Time =,    40.00,"TUBE-1",         25295,   5.87785E-03,   8.09017E-03,       1.92500,NA,NA,"",   10.0180E-03,  -867.362E-21,       1.92504,   17.9705E-06,   1.88463E+03
C:/ALETube/PressureUpdate/LargeStep/DeformErode/JobErode.odb,Step-1,Increment      4: Step Time =,    40.00,"TUBE-1",         25261,   7.07107E-03,   7.07107E-03,       1.92500,NA,NA,"",   10.0180E-03,            0.,       1.92504,   17.9734E-06,   1.88578E+03
C:/ALETube/PressureUpdate/LargeStep/DeformErode/JobErode.odb,Step-1,Increment      4: Step Time =,    40.00,"TUBE-1",         25459,   5.87785E-03,   8.09017E-03,        1.9375,NA,NA,"",   10.0181E-03,  -867.362E-21,       1.93753,   18.0876E-06,   1.89691E+03
C:/ALETube/PressureUpdate/LargeStep/DeformErode/JobErode.odb,Step-1,Increment      4: Step Time =,    40.00,"TUBE-1",         25425,   7.07107E-03,   7.07107E-03,        1.9375,NA,NA,"",   10.0181E-03,            0.,       1.93753,   18.0905E-06,   1.89806E+03
C:/ALETube/PressureUpdate/LargeStep/DeformErode/JobErode.odb,Step-1,Increment      4: Step Time =,    40.00,"TUBE-1",         25589,   7.07107E-03,   7.07107E-03,       1.95000,NA,NA,"",   10.0182E-03,            0.,       1.95003,   18.2080E-06,   1.91036E+03
C:/ALETube/PressureUpdate/LargeStep/DeformErode/JobErode.odb,Step-1,Increment      4: Step Time =,    40.00,"TUBE-1",         25623,   5.87785E-03,   8.09017E-03,       1.95000,NA,NA,"",   10.0182E-03,            0.,       1.95003,   18.2051E-06,   1.90919E+03
C:/ALETube/PressureUpdate/LargeStep/DeformErode/JobErode.odb,Step-1,Increment      4: Step Time =,    40.00,"TUBE-1",         25787,   5.87785E-03,   8.09017E-03,       1.96250,NA,NA,"",   10.0183E-03,            0.,       1.96252,   18.3217E-06,   1.92146E+03
C:/ALETube/PressureUpdate/LargeStep/DeformErode/JobErode.odb,Step-1,Increment      4: Step Time =,    40.00,"TUBE-1",         25753,   7.07107E-03,   7.07107E-03,       1.96250,NA,NA,"",   10.0183E-03,            0.,       1.96252,   18.3247E-06,   1.92262E+03
C:/ALETube/PressureUpdate/LargeStep/DeformErode/JobErode.odb,Step-1,Increment      4: Step Time =,    40.00,"TUBE-1",         25951,   5.87785E-03,   8.09017E-03,       1.97500,NA,NA,"",   10.0184E-03,            0.,       1.97501,   18.4374E-06,   1.93353E+03
C:/ALETube/PressureUpdate/LargeStep/DeformErode/JobErode.odb,Step-1,Increment      4: Step Time =,    40.00,"TUBE-1",         25917,   7.07107E-03,   7.07107E-03,       1.97500,NA,NA,"",   10.0184E-03,            0.,       1.97501,   18.4403E-06,   1.93473E+03
C:/ALETube/PressureUpdate/LargeStep/DeformErode/JobErode.odb,Step-1,Increment      4: Step Time =,    40.00,"TUBE-1",         26115,   5.87785E-03,   8.09017E-03,       1.98750,NA,NA,"",   10.0186E-03,  -867.362E-21,       1.98751,   18.5666E-06,   1.94680E+03
C:/ALETube/PressureUpdate/LargeStep/DeformErode/JobErode.odb,Step-1,Increment      4: Step Time =,    40.00,"TUBE-1",         26081,   7.07107E-03,   7.07107E-03,       1.98750,NA,NA,"",   10.0186E-03,            0.,       1.98751,   18.5697E-06,   1.94800E+03
C:/ALETube/PressureUpdate/LargeStep/DeformErode/JobErode.odb,Step-1,Increment      4: Step Time =,    40.00,"TUBE-1",         26279,   5.87785E-03,   8.09017E-03,            2.,NA,NA,"",   10.0187E-03,  -867.362E-21,            2.,   18.6562E-06,   1.95377E+03
C:/ALETube/PressureUpdate/LargeStep/DeformErode/JobErode.odb,Step-1,Increment      4: Step Time =,    40.00,"TUBE-1",         26245,   7.07107E-03,   7.07107E-03,            2.,NA,NA,"",   10.0187E-03,            0.,            2.,   18.6587E-06,   1.95620E+03
C:/ALETube/PressureUpdate/LargeStep/DeformErode/JobErode.odb,Step-1,Increment      5: Step Time =,    50.00,"TUBE-1",            39,   5.87785E-03,   8.09017E-03,            0.,NA,NA,"",   9.99994E-03,            0.,   837.321E-06,  -59.2294E-09,       3.88316
C:/ALETube/PressureUpdate/LargeStep/DeformErode/JobErode.odb,Step-1,Increment      5: Step Time =,    50.00,"TUBE-1",             5,   7.07107E-03,   7.07107E-03,            0.,NA,NA,"",   9.99994E-03,            0.,   837.321E-06,  -59.0133E-09,       3.88409
C:/ALETube/PressureUpdate/LargeStep/DeformErode/JobErode.odb,Step-1,Increment      5: Step Time =,    50.00,"TUBE-1",           203,   5.87785E-03,   8.09017E-03,   12.5000E-03,NA,NA,"",   10.0002E-03,            0.,   13.3394E-03,   190.364E-09,       18.8496
C:/ALETube/PressureUpdate/LargeStep/DeformErode/JobErode.odb,Step-1,Increment      5: Step Time =,    50.00,"TUBE-1",           169,   7.07107E-03,   7.07107E-03,   12.5000E-03,NA,NA,"",   10.0002E-03,            0.,   13.3382E-03,   190.441E-09,       18.8626
C:/ALETube/PressureUpdate/LargeStep/DeformErode/JobErode.odb,Step-1,Increment      5: Step Time =,    50.00,"TUBE-1",           333,   7.07107E-03,   7.07107E-03,   25.0000E-03,NA,NA,"",   10.0003E-03,            0.,   25.8372E-03,   346.561E-09,       36.9996
C:/ALETube/PressureUpdate/LargeStep/DeformErode/JobErode.odb,Step-1,Increment      5: Step Time =,    50.00,"TUBE-1",           367,   5.87785E-03,   8.09017E-03,   25.0000E-03,NA,NA,"",   10.0003E-03,            0.,   25.8373E-03,   346.404E-09,       36.9709
C:/ALETube/PressureUpdate/LargeStep/DeformErode/JobErode.odb,Step-1,Increment      5: Step Time =,    50.00,"TUBE-1",           531,   5.87785E-03,   8.09017E-03,   37.5000E-03,NA,NA,"",   10.0005E-03,  -867.362E-21,   38.3370E-03,   523.601E-09,       54.7876
C:/ALETube/PressureUpdate/LargeStep/DeformErode/JobErode.odb,Step-1,Increment      5: Step Time =,    50.00,"TUBE-1",           497,   7.07107E-03,   7.07107E-03,   37.5000E-03,NA,NA,"",   10.0005E-03,            0.,   38.3370E-03,   523.839E-09,       54.8328
C:/ALETube/PressureUpdate/LargeStep/DeformErode/JobErode.odb,Step-1,Increment      5: Step Time =,    50.00,"TUBE-1",           695,   5.87785E-03,   8.09017E-03,   50.0000E-03,NA,NA,"",   10.0007E-03,            0.,   50.8368E-03,   697.622E-09,       73.3916
C:/ALETube/PressureUpdate/LargeStep/DeformErode/JobErode.odb,Step-1,Increment      5: Step Time =,    50.00,"TUBE-1",           661,   7.07107E-03,   7.07107E-03,   50.0000E-03,NA,NA,"",   10.0007E-03,            0.,   50.8368E-03,   697.940E-09,       73.4510
C:/ALETube/PressureUpdate/LargeStep/DeformErode/JobErode.odb,Step-1,Increment      5: Step Time =,    50.00,"TUBE-1",           825,   7.07107E-03,   7.07107E-03,      62.5E-03,NA,NA,"",   10.0009E-03,            0.,   63.3365E-03,   873.235E-09,       91.6868
C:/ALETube/PressureUpdate/LargeStep/DeformErode/JobErode.odb,Step-1,Increment      5: Step Time =,    50.00,"TUBE-1",           859,   5.87785E-03,   8.09017E-03,      62.5E-03,NA,NA,"",   10.0009E-03,            0.,   63.3365E-03,   872.839E-09,       91.6121
C:/ALETube/PressureUpdate/LargeStep/DeformErode/JobErode.odb,Step-1,Increment      5: Step Time =,    50.00,"TUBE-1",          1023,   5.87785E-03,   8.09017E-03,   75.0000E-03,NA,NA,"",   10.0010E-03,  -867.362E-21,   75.8362E-03,   1.04709E-06,       109.987
C:/ALETube/PressureUpdate/LargeStep/DeformErode/JobErode.odb,Step-1,Increment      5: Step Time =,    50.00,"TUBE-1",           989,   7.07107E-03,   7.07107E-03,   75.0000E-03,NA,NA,"",   10.0010E-03,            0.,   75.8362E-03,   1.04756E-06,       110.076
C:/ALETube/PressureUpdate/LargeStep/DeformErode/JobErode.odb,Step-1,Increment      5: Step Time =,    50.00,"TUBE-1",          1187,   5.87785E-03,   8.09017E-03,   87.5000E-03,NA,NA,"",   10.0012E-03,  -867.362E-21,   88.3357E-03,   1.22193E-06,       128.301
C:/ALETube/PressureUpdate/LargeStep/DeformErode/JobErode.odb,Step-1,Increment      5: Step Time =,    50.00,"TUBE-1",          1153,   7.07107E-03,   7.07107E-03,   87.5000E-03,NA,NA,"",   10.0012E-03,            0.,   88.3357E-03,   1.22248E-06,       128.405
C:/ALETube/PressureUpdate/LargeStep/DeformErode/JobErode.odb,Step-1,Increment      5: Step Time =,    50.00,"TUBE-1",          1351,   5.87785E-03,   8.09017E-03,   100.000E-03,NA,NA,"",   10.0014E-03,            0.,   100.835E-03,   1.39649E-06,       146.644
C:/ALETube/PressureUpdate/LargeStep/DeformErode/JobErode.odb,Step-1,Increment      5: Step Time =,    50.00,"TUBE-1",          1317,   7.07107E-03,   7.07107E-03,   100.000E-03,NA,NA,"",   10.0014E-03,            0.,   100.835E-03,   1.39712E-06,       146.763
C:/ALETube/PressureUpdate/LargeStep/DeformErode/JobErode.odb,Step-1,Increment      5: Step Time =,    50.00,"TUBE-1",          1515,   5.87785E-03,   8.09017E-03,   112.500E-03,NA,NA,"",   10.0016E-03,            0.,   113.335E-03,   1.57118E-06,       164.973
C:/ALETube/PressureUpdate/LargeStep/DeformErode/JobErode.odb,Step-1,Increment      5: Step Time =,    50.00,"TUBE-1",          1481,   7.07107E-03,   7.07107E-03,   112.500E-03,NA,NA,"",   10.0016E-03,            0.,   113.335E-03,   1.57189E-06,       165.107
C:/ALETube/PressureUpdate/LargeStep/DeformErode/JobErode.odb,Step-1,Increment      5: Step Time =,    50.00,"TUBE-1",          1645,   7.07107E-03,   7.07107E-03,      125.E-03,NA,NA,"",   10.0017E-03,            0.,   125.834E-03,   1.74660E-06,       183.458
C:/ALETube/PressureUpdate/LargeStep/DeformErode/JobErode.odb,Step-1,Increment      5: Step Time =,    50.00,"TUBE-1",          1679,   5.87785E-03,   8.09017E-03,      125.E-03,NA,NA,"",   10.0017E-03,            0.,   125.834E-03,   1.74581E-06,       183.309
C:/ALETube/PressureUpdate/LargeStep/DeformErode/JobErode.odb,Step-1,Increment      5: Step Time =,    50.00,"TUBE-1",          1843,   5.87785E-03,   8.09017E-03,   137.500E-03,NA,NA,"",   10.0019E-03,            0.,   138.333E-03,   1.92047E-06,       201.642
C:/ALETube/PressureUpdate/LargeStep/DeformErode/JobErode.odb,Step-1,Increment      5: Step Time =,    50.00,"TUBE-1",          1809,   7.07107E-03,   7.07107E-03,   137.500E-03,NA,NA,"",   10.0019E-03,            0.,   138.333E-03,   1.92134E-06,       201.806
C:/ALETube/PressureUpdate/LargeStep/DeformErode/JobErode.odb,Step-1,Increment      5: Step Time =,    50.00,"TUBE-1",          2007,   5.87785E-03,   8.09017E-03,   150.000E-03,NA,NA,"",   10.0021E-03,            0.,   150.833E-03,   2.09513E-06,       219.977
C:/ALETube/PressureUpdate/LargeStep/DeformErode/JobErode.odb,Step-1,Increment      5: Step Time =,    50.00,"TUBE-1",          1973,   7.07107E-03,   7.07107E-03,   150.000E-03,NA,NA,"",   10.0021E-03,            0.,   150.833E-03,   2.09608E-06,       220.156
C:/ALETube/PressureUpdate/LargeStep/DeformErode/JobErode.odb,Step-1,Increment      5: Step Time =,    50.00,"TUBE-1",          2171,   5.87785E-03,   8.09017E-03,   162.500E-03,NA,NA,"",   10.0023E-03,            0.,   163.332E-03,   2.26979E-06,       238.310
C:/ALETube/PressureUpdate/LargeStep/DeformErode/JobErode.odb,Step-1,Increment      5: Step Time =,    50.00,"TUBE-1",          2137,   7.07107E-03,   7.07107E-03,   162.500E-03,NA,NA,"",   10.0023E-03,            0.,   163.332E-03,   2.27082E-06,       238.504
C:/ALETube/PressureUpdate/LargeStep/DeformErode/JobErode.odb,Step-1,Increment      5: Step Time =,    50.00,"TUBE-1",          2335,   5.87785E-03,   8.09017E-03,   175.000E-03,NA,NA,"",   10.0024E-03,   867.362E-21,   175.831E-03,   2.44445E-06,       256.645
C:/ALETube/PressureUpdate/LargeStep/DeformErode/JobErode.odb,Step-1,Increment      5: Step Time =,    50.00,"TUBE-1",          2301,   7.07107E-03,   7.07107E-03,   175.000E-03,NA,NA,"",   10.0024E-03,            0.,   175.831E-03,   2.44556E-06,       256.853
C:/ALETube/PressureUpdate/LargeStep/DeformErode/JobErode.odb,Step-1,Increment      5: Step Time =,    50.00,"TUBE-1",          2465,   7.07107E-03,   7.07107E-03,     187.5E-03,NA,NA,"",   10.0026E-03,            0.,   188.330E-03,   2.62030E-06,       275.202
C:/ALETube/PressureUpdate/LargeStep/DeformErode/JobErode.odb,Step-1,Increment      5: Step Time =,    50.00,"TUBE-1",          2499,   5.87785E-03,   8.09017E-03,     187.5E-03,NA,NA,"",   10.0026E-03,            0.,   188.330E-03,   2.61912E-06,       274.978
C:/ALETube/PressureUpdate/LargeStep/DeformErode/JobErode.odb,Step-1,Increment      5: Step Time =,    50.00,"TUBE-1",          2663,   5.87785E-03,   8.09017E-03,   200.000E-03,NA,NA,"",   10.0028E-03,            0.,   200.829E-03,   2.79379E-06,       293.312
C:/ALETube/PressureUpdate/LargeStep/DeformErode/JobErode.odb,Step-1,Increment      5: Step Time =,    50.00,"TUBE-1",          2629,   7.07107E-03,   7.07107E-03,   200.000E-03,NA,NA,"",   10.0028E-03,            0.,   200.829E-03,   2.79505E-06,       293.551
C:/ALETube/PressureUpdate/LargeStep/DeformErode/JobErode.odb,Step-1,Increment      5: Step Time =,    50.00,"TUBE-1",          2827,   5.87785E-03,   8.09017E-03,   212.500E-03,NA,NA,"",   10.0030E-03,            0.,   213.328E-03,   2.96846E-06,       311.646
C:/ALETube/PressureUpdate/LargeStep/DeformErode/JobErode.odb,Step-1,Increment      5: Step Time =,    50.00,"TUBE-1",          2793,   7.07107E-03,   7.07107E-03,   212.500E-03,NA,NA,"",   10.0030E-03,            0.,   213.328E-03,   2.96980E-06,       311.899
C:/ALETube/PressureUpdate/LargeStep/DeformErode/JobErode.odb,Step-1,Increment      5: Step Time =,    50.00,"TUBE-1",          2991,   5.87785E-03,   8.09017E-03,   225.000E-03,NA,NA,"",   10.0031E-03,            0.,   225.827E-03,   3.14313E-06,       329.979
C:/ALETube/PressureUpdate/LargeStep/DeformErode/JobErode.odb,Step-1,Increment      5: Step Time =,    50.00,"TUBE-1",          2957,   7.07107E-03,   7.07107E-03,   225.000E-03,NA,NA,"",   10.0031E-03,            0.,   225.827E-03,   3.14455E-06,       330.247
C:/ALETube/PressureUpdate/LargeStep/DeformErode/JobErode.odb,Step-1,Increment      5: Step Time =,    50.00,"TUBE-1",          3155,   5.87785E-03,   8.09017E-03,   237.500E-03,NA,NA,"",   10.0033E-03,   867.362E-21,   238.325E-03,   3.31781E-06,       348.313
C:/ALETube/PressureUpdate/LargeStep/DeformErode/JobErode.odb,Step-1,Increment      5: Step Time =,    50.00,"TUBE-1",          3121,   7.07107E-03,   7.07107E-03,   237.500E-03,NA,NA,"",   10.0033E-03,            0.,   238.325E-03,   3.31931E-06,       348.596
C:/ALETube/PressureUpdate/LargeStep/DeformErode/JobErode.odb,Step-1,Increment      5: Step Time =,    50.00,"TUBE-1",          3285,   7.07107E-03,   7.07107E-03,      250.E-03,NA,NA,"",   10.0035E-03,            0.,   250.824E-03,   3.49406E-06,       366.944
C:/ALETube/PressureUpdate/LargeStep/DeformErode/JobErode.odb,Step-1,Increment      5: Step Time =,    50.00,"TUBE-1",          3319,   5.87785E-03,   8.09017E-03,      250.E-03,NA,NA,"",   10.0035E-03,            0.,   250.824E-03,   3.49249E-06,       366.646
C:/ALETube/PressureUpdate/LargeStep/DeformErode/JobErode.odb,Step-1,Increment      5: Step Time =,    50.00,"TUBE-1",          3483,   5.87785E-03,   8.09017E-03,   262.500E-03,NA,NA,"",   10.0037E-03,            0.,   263.323E-03,   3.66717E-06,       384.979
C:/ALETube/PressureUpdate/LargeStep/DeformErode/JobErode.odb,Step-1,Increment      5: Step Time =,    50.00,"TUBE-1",          3449,   7.07107E-03,   7.07107E-03,   262.500E-03,NA,NA,"",   10.0037E-03,            0.,   263.323E-03,   3.66883E-06,       385.292
C:/ALETube/PressureUpdate/LargeStep/DeformErode/JobErode.odb,Step-1,Increment      5: Step Time =,    50.00,"TUBE-1",          3647,   5.87785E-03,   8.09017E-03,   275.000E-03,NA,NA,"",   10.0038E-03,            0.,   275.821E-03,   3.84185E-06,       403.312
C:/ALETube/PressureUpdate/LargeStep/DeformErode/JobErode.odb,Step-1,Increment      5: Step Time =,    50.00,"TUBE-1",          3613,   7.07107E-03,   7.07107E-03,   275.000E-03,NA,NA,"",   10.0038E-03,            0.,   275.821E-03,   3.84359E-06,       403.640
C:/ALETube/PressureUpdate/LargeStep/DeformErode/JobErode.odb,Step-1,Increment      5: Step Time =,    50.00,"TUBE-1",          3811,   5.87785E-03,   8.09017E-03,   287.500E-03,NA,NA,"",   10.0040E-03,            0.,   288.320E-03,   4.01654E-06,       421.645
C:/ALETube/PressureUpdate/LargeStep/DeformErode/JobErode.odb,Step-1,Increment      5: Step Time =,    50.00,"TUBE-1",          3777,   7.07107E-03,   7.07107E-03,   287.500E-03,NA,NA,"",   10.0040E-03,            0.,   288.320E-03,   4.01835E-06,       421.988
C:/ALETube/PressureUpdate/LargeStep/DeformErode/JobErode.odb,Step-1,Increment      5: Step Time =,    50.00,"TUBE-1",          3975,   5.87785E-03,   8.09017E-03,   300.000E-03,NA,NA,"",   10.0042E-03,   867.362E-21,   300.818E-03,   4.19123E-06,       439.978
C:/ALETube/PressureUpdate/LargeStep/DeformErode/JobErode.odb,Step-1,Increment      5: Step Time =,    50.00,"TUBE-1",          3941,   7.07107E-03,   7.07107E-03,   300.000E-03,NA,NA,"",   10.0042E-03,            0.,   300.818E-03,   4.19312E-06,       440.335
C:/ALETube/PressureUpdate/LargeStep/DeformErode/JobErode.odb,Step-1,Increment      5: Step Time =,    50.00,"TUBE-1",          4105,   7.07107E-03,   7.07107E-03,     312.5E-03,NA,NA,"",   10.0044E-03,            0.,   313.317E-03,   4.36789E-06,       458.683
C:/ALETube/PressureUpdate/LargeStep/DeformErode/JobErode.odb,Step-1,Increment      5: Step Time =,    50.00,"TUBE-1",          4139,   5.87785E-03,   8.09017E-03,     312.5E-03,NA,NA,"",   10.0044E-03,  -867.362E-21,   313.317E-03,   4.36592E-06,       458.310
C:/ALETube/PressureUpdate/LargeStep/DeformErode/JobErode.odb,Step-1,Increment      5: Step Time =,    50.00,"TUBE-1",          4303,   5.87785E-03,   8.09017E-03,   325.000E-03,NA,NA,"",   10.0045E-03,            0.,   325.815E-03,   4.54062E-06,       476.642
C:/ALETube/PressureUpdate/LargeStep/DeformErode/JobErode.odb,Step-1,Increment      5: Step Time =,    50.00,"TUBE-1",          4269,   7.07107E-03,   7.07107E-03,   325.000E-03,NA,NA,"",   10.0045E-03,            0.,   325.815E-03,   4.54267E-06,       477.030
C:/ALETube/PressureUpdate/LargeStep/DeformErode/JobErode.odb,Step-1,Increment      5: Step Time =,    50.00,"TUBE-1",          4467,   5.87785E-03,   8.09017E-03,   337.500E-03,NA,NA,"",   10.0047E-03,            0.,   338.313E-03,   4.71531E-06,       494.975
C:/ALETube/PressureUpdate/LargeStep/DeformErode/JobErode.odb,Step-1,Increment      5: Step Time =,    50.00,"TUBE-1",          4433,   7.07107E-03,   7.07107E-03,   337.500E-03,NA,NA,"",   10.0047E-03,            0.,   338.313E-03,   4.71744E-06,       495.377
C:/ALETube/PressureUpdate/LargeStep/DeformErode/JobErode.odb,Step-1,Increment      5: Step Time =,    50.00,"TUBE-1",          4631,   5.87785E-03,   8.09017E-03,   350.000E-03,NA,NA,"",   10.0049E-03,            0.,   350.812E-03,   4.89001E-06,       513.307
C:/ALETube/PressureUpdate/LargeStep/DeformErode/JobErode.odb,Step-1,Increment      5: Step Time =,    50.00,"TUBE-1",          4597,   7.07107E-03,   7.07107E-03,   350.000E-03,NA,NA,"",   10.0049E-03,            0.,   350.812E-03,   4.89222E-06,       513.724
C:/ALETube/PressureUpdate/LargeStep/DeformErode/JobErode.odb,Step-1,Increment      5: Step Time =,    50.00,"TUBE-1",          4795,   5.87785E-03,   8.09017E-03,   362.500E-03,NA,NA,"",   10.0051E-03,  -867.362E-21,   363.310E-03,   5.06472E-06,       531.639
C:/ALETube/PressureUpdate/LargeStep/DeformErode/JobErode.odb,Step-1,Increment      5: Step Time =,    50.00,"TUBE-1",          4761,   7.07107E-03,   7.07107E-03,   362.500E-03,NA,NA,"",   10.0051E-03,            0.,   363.310E-03,   5.06700E-06,       532.071
C:/ALETube/PressureUpdate/LargeStep/DeformErode/JobErode.odb,Step-1,Increment      5: Step Time =,    50.00,"TUBE-1",          4925,   7.07107E-03,   7.07107E-03,      375.E-03,NA,NA,"",   10.0052E-03,            0.,   375.808E-03,   5.24179E-06,       550.418
C:/ALETube/PressureUpdate/LargeStep/DeformErode/JobErode.odb,Step-1,Increment      5: Step Time =,    50.00,"TUBE-1",          4959,   5.87785E-03,   8.09017E-03,      375.E-03,NA,NA,"",   10.0052E-03,            0.,   375.808E-03,   5.23942E-06,       549.971
C:/ALETube/PressureUpdate/LargeStep/DeformErode/JobErode.odb,Step-1,Increment      5: Step Time =,    50.00,"TUBE-1",          5123,   5.87785E-03,   8.09017E-03,   387.500E-03,NA,NA,"",   10.0054E-03,  -867.362E-21,   388.306E-03,   5.41413E-06,       568.302
C:/ALETube/PressureUpdate/LargeStep/DeformErode/JobErode.odb,Step-1,Increment      5: Step Time =,    50.00,"TUBE-1",          5089,   7.07107E-03,   7.07107E-03,   387.500E-03,NA,NA,"",   10.0054E-03,            0.,   388.306E-03,   5.41657E-06,       568.764
C:/ALETube/PressureUpdate/LargeStep/DeformErode/JobErode.odb,Step-1,Increment      5: Step Time =,    50.00,"TUBE-1",          5287,   5.87785E-03,   8.09017E-03,   400.000E-03,NA,NA,"",   10.0056E-03,   867.362E-21,   400.804E-03,   5.58884E-06,       586.634
C:/ALETube/PressureUpdate/LargeStep/DeformErode/JobErode.odb,Step-1,Increment      5: Step Time =,    50.00,"TUBE-1",          5253,   7.07107E-03,   7.07107E-03,   400.000E-03,NA,NA,"",   10.0056E-03,            0.,   400.804E-03,   5.59136E-06,       587.111
C:/ALETube/PressureUpdate/LargeStep/DeformErode/JobErode.odb,Step-1,Increment      5: Step Time =,    50.00,"TUBE-1",          5451,   5.87785E-03,   8.09017E-03,   412.500E-03,NA,NA,"",   10.0058E-03,            0.,   413.301E-03,   5.76355E-06,       604.965
C:/ALETube/PressureUpdate/LargeStep/DeformErode/JobErode.odb,Step-1,Increment      5: Step Time =,    50.00,"TUBE-1",          5417,   7.07107E-03,   7.07107E-03,   412.500E-03,NA,NA,"",   10.0058E-03,            0.,   413.301E-03,   5.76615E-06,       605.457
C:/ALETube/PressureUpdate/LargeStep/DeformErode/JobErode.odb,Step-1,Increment      5: Step Time =,    50.00,"TUBE-1",          5615,   5.87785E-03,   8.09017E-03,   425.000E-03,NA,NA,"",   10.0059E-03,  -867.362E-21,   425.799E-03,   5.93827E-06,       623.296
C:/ALETube/PressureUpdate/LargeStep/DeformErode/JobErode.odb,Step-1,Increment      5: Step Time =,    50.00,"TUBE-1",          5581,   7.07107E-03,   7.07107E-03,   425.000E-03,NA,NA,"",   10.0059E-03,            0.,   425.799E-03,   5.94095E-06,       623.803
C:/ALETube/PressureUpdate/LargeStep/DeformErode/JobErode.odb,Step-1,Increment      5: Step Time =,    50.00,"TUBE-1",          5745,   7.07107E-03,   7.07107E-03,     437.5E-03,NA,NA,"",   10.0061E-03,            0.,   438.297E-03,   6.11574E-06,       642.149
C:/ALETube/PressureUpdate/LargeStep/DeformErode/JobErode.odb,Step-1,Increment      5: Step Time =,    50.00,"TUBE-1",          5779,   5.87785E-03,   8.09017E-03,     437.5E-03,NA,NA,"",   10.0061E-03,            0.,   438.297E-03,   6.11299E-06,       641.627
C:/ALETube/PressureUpdate/LargeStep/DeformErode/JobErode.odb,Step-1,Increment      5: Step Time =,    50.00,"TUBE-1",          5943,   5.87785E-03,   8.09017E-03,   450.000E-03,NA,NA,"",   10.0063E-03,            0.,   450.795E-03,   6.28771E-06,       659.958
C:/ALETube/PressureUpdate/LargeStep/DeformErode/JobErode.odb,Step-1,Increment      5: Step Time =,    50.00,"TUBE-1",          5909,   7.07107E-03,   7.07107E-03,   450.000E-03,NA,NA,"",   10.0063E-03,            0.,   450.795E-03,   6.29054E-06,       660.494
C:/ALETube/PressureUpdate/LargeStep/DeformErode/JobErode.odb,Step-1,Increment      5: Step Time =,    50.00,"TUBE-1",          6107,   5.87785E-03,   8.09017E-03,   462.500E-03,NA,NA,"",   10.0065E-03,  -867.362E-21,   463.292E-03,   6.46243E-06,       678.289
C:/ALETube/PressureUpdate/LargeStep/DeformErode/JobErode.odb,Step-1,Increment      5: Step Time =,    50.00,"TUBE-1",          6073,   7.07107E-03,   7.07107E-03,   462.500E-03,NA,NA,"",   10.0065E-03,            0.,   463.292E-03,   6.46535E-06,       678.840
C:/ALETube/PressureUpdate/LargeStep/DeformErode/JobErode.odb,Step-1,Increment      5: Step Time =,    50.00,"TUBE-1",          6271,   5.87785E-03,   8.09017E-03,   475.000E-03,NA,NA,"",   10.0066E-03,  -867.362E-21,   475.790E-03,   6.63716E-06,       696.619
C:/ALETube/PressureUpdate/LargeStep/DeformErode/JobErode.odb,Step-1,Increment      5: Step Time =,    50.00,"TUBE-1",          6237,   7.07107E-03,   7.07107E-03,   475.000E-03,NA,NA,"",   10.0066E-03,            0.,   475.790E-03,   6.64015E-06,       697.185
C:/ALETube/PressureUpdate/LargeStep/DeformErode/JobErode.odb,Step-1,Increment      5: Step Time =,    50.00,"TUBE-1",          6435,   5.87785E-03,   8.09017E-03,   487.500E-03,NA,NA,"",   10.0068E-03,  -867.362E-21,   488.287E-03,   6.81189E-06,       714.949
C:/ALETube/PressureUpdate/LargeStep/DeformErode/JobErode.odb,Step-1,Increment      5: Step Time =,    50.00,"TUBE-1",          6401,   7.07107E-03,   7.07107E-03,   487.500E-03,NA,NA,"",   10.0068E-03,            0.,   488.287E-03,   6.81496E-06,       715.531
C:/ALETube/PressureUpdate/LargeStep/DeformErode/JobErode.odb,Step-1,Increment      5: Step Time =,    50.00,"TUBE-1",          6565,   7.07107E-03,   7.07107E-03,      500.E-03,NA,NA,"",   10.0070E-03,            0.,   500.785E-03,   6.98977E-06,       733.876
C:/ALETube/PressureUpdate/LargeStep/DeformErode/JobErode.odb,Step-1,Increment      5: Step Time =,    50.00,"TUBE-1",          6599,   5.87785E-03,   8.09017E-03,      500.E-03,NA,NA,"",   10.0070E-03,            0.,   500.785E-03,   6.98662E-06,       733.280
C:/ALETube/PressureUpdate/LargeStep/DeformErode/JobErode.odb,Step-1,Increment      5: Step Time =,    50.00,"TUBE-1",          6763,   5.87785E-03,   8.09017E-03,   512.500E-03,NA,NA,"",   10.0072E-03,  -867.362E-21,   513.282E-03,   7.16135E-06,       751.610
C:/ALETube/PressureUpdate/LargeStep/DeformErode/JobErode.odb,Step-1,Increment      5: Step Time =,    50.00,"TUBE-1",          6729,   7.07107E-03,   7.07107E-03,   512.500E-03,NA,NA,"",   10.0072E-03,            0.,   513.282E-03,   7.16458E-06,       752.221
C:/ALETube/PressureUpdate/LargeStep/DeformErode/JobErode.odb,Step-1,Increment      5: Step Time =,    50.00,"TUBE-1",          6927,   5.87785E-03,   8.09017E-03,   525.000E-03,NA,NA,"",   10.0073E-03,            0.,   525.779E-03,   7.33609E-06,       769.940
C:/ALETube/PressureUpdate/LargeStep/DeformErode/JobErode.odb,Step-1,Increment      5: Step Time =,    50.00,"TUBE-1",          6893,   7.07107E-03,   7.07107E-03,   525.000E-03,NA,NA,"",   10.0073E-03,            0.,   525.779E-03,   7.33940E-06,       770.565
C:/ALETube/PressureUpdate/LargeStep/DeformErode/JobErode.odb,Step-1,Increment      5: Step Time =,    50.00,"TUBE-1",          7091,   5.87785E-03,   8.09017E-03,   537.500E-03,NA,NA,"",   10.0075E-03,            0.,   538.277E-03,   7.51083E-06,       788.269
C:/ALETube/PressureUpdate/LargeStep/DeformErode/JobErode.odb,Step-1,Increment      5: Step Time =,    50.00,"TUBE-1",          7057,   7.07107E-03,   7.07107E-03,   537.500E-03,NA,NA,"",   10.0075E-03,            0.,   538.277E-03,   7.51422E-06,       788.910
C:/ALETube/PressureUpdate/LargeStep/DeformErode/JobErode.odb,Step-1,Increment      5: Step Time =,    50.00,"TUBE-1",          7255,   5.87785E-03,   8.09017E-03,   550.000E-03,NA,NA,"",   10.0077E-03,            0.,   550.774E-03,   7.68557E-06,       806.599
C:/ALETube/PressureUpdate/LargeStep/DeformErode/JobErode.odb,Step-1,Increment      5: Step Time =,    50.00,"TUBE-1",          7221,   7.07107E-03,   7.07107E-03,   550.000E-03,NA,NA,"",   10.0077E-03,            0.,   550.774E-03,   7.68904E-06,       807.254
C:/ALETube/PressureUpdate/LargeStep/DeformErode/JobErode.odb,Step-1,Increment      5: Step Time =,    50.00,"TUBE-1",          7385,   7.07107E-03,   7.07107E-03,     562.5E-03,NA,NA,"",   10.0079E-03,            0.,   563.271E-03,   7.86386E-06,       825.599
C:/ALETube/PressureUpdate/LargeStep/DeformErode/JobErode.odb,Step-1,Increment      5: Step Time =,    50.00,"TUBE-1",          7419,   5.87785E-03,   8.09017E-03,     562.5E-03,NA,NA,"",   10.0079E-03,            0.,   563.271E-03,   7.86032E-06,       824.928
C:/ALETube/PressureUpdate/LargeStep/DeformErode/JobErode.odb,Step-1,Increment      5: Step Time =,    50.00,"TUBE-1",          7583,   5.87785E-03,   8.09017E-03,   575.000E-03,NA,NA,"",   10.0080E-03,  -867.362E-21,   575.768E-03,   8.03506E-06,       843.257
C:/ALETube/PressureUpdate/LargeStep/DeformErode/JobErode.odb,Step-1,Increment      5: Step Time =,    50.00,"TUBE-1",          7549,   7.07107E-03,   7.07107E-03,   575.000E-03,NA,NA,"",   10.0080E-03,            0.,   575.768E-03,   8.03869E-06,       843.943
C:/ALETube/PressureUpdate/LargeStep/DeformErode/JobErode.odb,Step-1,Increment      5: Step Time =,    50.00,"TUBE-1",          7747,   5.87785E-03,   8.09017E-03,   587.500E-03,NA,NA,"",   10.0082E-03,  -867.362E-21,   588.265E-03,   8.20981E-06,       861.586
C:/ALETube/PressureUpdate/LargeStep/DeformErode/JobErode.odb,Step-1,Increment      5: Step Time =,    50.00,"TUBE-1",          7713,   7.07107E-03,   7.07107E-03,   587.500E-03,NA,NA,"",   10.0082E-03,            0.,   588.265E-03,   8.21351E-06,       862.287
C:/ALETube/PressureUpdate/LargeStep/DeformErode/JobErode.odb,Step-1,Increment      5: Step Time =,    50.00,"TUBE-1",          7911,   5.87785E-03,   8.09017E-03,   600.000E-03,NA,NA,"",   10.0084E-03,   867.362E-21,   600.762E-03,   8.38457E-06,       879.915
C:/ALETube/PressureUpdate/LargeStep/DeformErode/JobErode.odb,Step-1,Increment      5: Step Time =,    50.00,"TUBE-1",          7877,   7.07107E-03,   7.07107E-03,   600.000E-03,NA,NA,"",   10.0084E-03,            0.,   600.762E-03,   8.38835E-06,       880.630
C:/ALETube/PressureUpdate/LargeStep/DeformErode/JobErode.odb,Step-1,Increment      5: Step Time =,    50.00,"TUBE-1",          8075,   5.87785E-03,   8.09017E-03,   612.500E-03,NA,NA,"",   10.0086E-03,            0.,   613.258E-03,   8.55932E-06,       898.244
C:/ALETube/PressureUpdate/LargeStep/DeformErode/JobErode.odb,Step-1,Increment      5: Step Time =,    50.00,"TUBE-1",          8041,   7.07107E-03,   7.07107E-03,   612.500E-03,NA,NA,"",   10.0086E-03,            0.,   613.258E-03,   8.56318E-06,       898.974
C:/ALETube/PressureUpdate/LargeStep/DeformErode/JobErode.odb,Step-1,Increment      5: Step Time =,    50.00,"TUBE-1",          8205,   7.07107E-03,   7.07107E-03,      625.E-03,NA,NA,"",   10.0087E-03,            0.,   625.755E-03,   8.73802E-06,       917.317
C:/ALETube/PressureUpdate/LargeStep/DeformErode/JobErode.odb,Step-1,Increment      5: Step Time =,    50.00,"TUBE-1",          8239,   5.87785E-03,   8.09017E-03,      625.E-03,NA,NA,"",   10.0087E-03,            0.,   625.755E-03,   8.73408E-06,       916.573
C:/ALETube/PressureUpdate/LargeStep/DeformErode/JobErode.odb,Step-1,Increment      5: Step Time =,    50.00,"TUBE-1",          8403,   5.87785E-03,   8.09017E-03,   637.500E-03,NA,NA,"",   10.0089E-03,  -1.73472E-18,   638.252E-03,   8.90884E-06,       934.901
C:/ALETube/PressureUpdate/LargeStep/DeformErode/JobErode.odb,Step-1,Increment      5: Step Time =,    50.00,"TUBE-1",          8369,   7.07107E-03,   7.07107E-03,   637.500E-03,NA,NA,"",   10.0089E-03,            0.,   638.252E-03,   8.91285E-06,       935.661
C:/ALETube/PressureUpdate/LargeStep/DeformErode/JobErode.odb,Step-1,Increment      5: Step Time =,    50.00,"TUBE-1",          8567,   5.87785E-03,   8.09017E-03,   650.000E-03,NA,NA,"",   10.0091E-03,            0.,   650.748E-03,   9.08360E-06,       953.229
C:/ALETube/PressureUpdate/LargeStep/DeformErode/JobErode.odb,Step-1,Increment      5: Step Time =,    50.00,"TUBE-1",          8533,   7.07107E-03,   7.07107E-03,   650.000E-03,NA,NA,"",   10.0091E-03,            0.,   650.748E-03,   9.08770E-06,       954.004
C:/ALETube/PressureUpdate/LargeStep/DeformErode/JobErode.odb,Step-1,Increment      5: Step Time =,    50.00,"TUBE-1",          8731,   5.87785E-03,   8.09017E-03,   662.500E-03,NA,NA,"",   10.0093E-03,   867.362E-21,   663.245E-03,   9.25837E-06,       971.557
C:/ALETube/PressureUpdate/LargeStep/DeformErode/JobErode.odb,Step-1,Increment      5: Step Time =,    50.00,"TUBE-1",          8697,   7.07107E-03,   7.07107E-03,   662.500E-03,NA,NA,"",   10.0093E-03,            0.,   663.245E-03,   9.26254E-06,       972.347
C:/ALETube/PressureUpdate/LargeStep/DeformErode/JobErode.odb,Step-1,Increment      5: Step Time =,    50.00,"TUBE-1",          8895,   5.87785E-03,   8.09017E-03,   675.000E-03,NA,NA,"",   10.0094E-03,   867.362E-21,   675.741E-03,   9.43314E-06,       989.885
C:/ALETube/PressureUpdate/LargeStep/DeformErode/JobErode.odb,Step-1,Increment      5: Step Time =,    50.00,"TUBE-1",          8861,   7.07107E-03,   7.07107E-03,   675.000E-03,NA,NA,"",   10.0094E-03,            0.,   675.741E-03,   9.43739E-06,       990.690
C:/ALETube/PressureUpdate/LargeStep/DeformErode/JobErode.odb,Step-1,Increment      5: Step Time =,    50.00,"TUBE-1",          9025,   7.07107E-03,   7.07107E-03,     687.5E-03,NA,NA,"",   10.0096E-03,            0.,   688.238E-03,   9.61224E-06,   1.00903E+03
C:/ALETube/PressureUpdate/LargeStep/DeformErode/JobErode.odb,Step-1,Increment      5: Step Time =,    50.00,"TUBE-1",          9059,   5.87785E-03,   8.09017E-03,     687.5E-03,NA,NA,"",   10.0096E-03,            0.,   688.238E-03,   9.60791E-06,   1.00821E+03
C:/ALETube/PressureUpdate/LargeStep/DeformErode/JobErode.odb,Step-1,Increment      5: Step Time =,    50.00,"TUBE-1",          9223,   5.87785E-03,   8.09017E-03,   700.000E-03,NA,NA,"",   10.0098E-03,            0.,   700.734E-03,   9.78268E-06,   1.02654E+03
C:/ALETube/PressureUpdate/LargeStep/DeformErode/JobErode.odb,Step-1,Increment      5: Step Time =,    50.00,"TUBE-1",          9189,   7.07107E-03,   7.07107E-03,   700.000E-03,NA,NA,"",   10.0098E-03,            0.,   700.734E-03,   9.78709E-06,   1.02737E+03
C:/ALETube/PressureUpdate/LargeStep/DeformErode/JobErode.odb,Step-1,Increment      5: Step Time =,    50.00,"TUBE-1",          9387,   5.87785E-03,   8.09017E-03,   712.500E-03,NA,NA,"",   10.0100E-03,  -867.362E-21,   713.231E-03,   9.95746E-06,   1.04487E+03
C:/ALETube/PressureUpdate/LargeStep/DeformErode/JobErode.odb,Step-1,Increment      5: Step Time =,    50.00,"TUBE-1",          9353,   7.07107E-03,   7.07107E-03,   712.500E-03,NA,NA,"",   10.0100E-03,            0.,   713.231E-03,   9.96194E-06,   1.04572E+03
C:/ALETube/PressureUpdate/LargeStep/DeformErode/JobErode.odb,Step-1,Increment      5: Step Time =,    50.00,"TUBE-1",          9551,   5.87785E-03,   8.09017E-03,   725.000E-03,NA,NA,"",   10.0101E-03,            0.,   725.727E-03,   10.1322E-06,   1.06320E+03
C:/ALETube/PressureUpdate/LargeStep/DeformErode/JobErode.odb,Step-1,Increment      5: Step Time =,    50.00,"TUBE-1",          9517,   7.07107E-03,   7.07107E-03,   725.000E-03,NA,NA,"",   10.0101E-03,            0.,   725.727E-03,   10.1368E-06,   1.06406E+03
C:/ALETube/PressureUpdate/LargeStep/DeformErode/JobErode.odb,Step-1,Increment      5: Step Time =,    50.00,"TUBE-1",          9715,   5.87785E-03,   8.09017E-03,   737.500E-03,NA,NA,"",   10.0103E-03,  -867.362E-21,   738.223E-03,   10.3070E-06,   1.08152E+03
C:/ALETube/PressureUpdate/LargeStep/DeformErode/JobErode.odb,Step-1,Increment      5: Step Time =,    50.00,"TUBE-1",          9681,   7.07107E-03,   7.07107E-03,   737.500E-03,NA,NA,"",   10.0103E-03,            0.,   738.223E-03,   10.3117E-06,   1.08240E+03
C:/ALETube/PressureUpdate/LargeStep/DeformErode/JobErode.odb,Step-1,Increment      5: Step Time =,    50.00,"TUBE-1",          9845,   7.07107E-03,   7.07107E-03,      750.E-03,NA,NA,"",   10.0105E-03,            0.,   750.719E-03,   10.4865E-06,   1.10074E+03
C:/ALETube/PressureUpdate/LargeStep/DeformErode/JobErode.odb,Step-1,Increment      5: Step Time =,    50.00,"TUBE-1",          9879,   5.87785E-03,   8.09017E-03,      750.E-03,NA,NA,"",   10.0105E-03,            0.,   750.719E-03,   10.4818E-06,   1.09985E+03
C:/ALETube/PressureUpdate/LargeStep/DeformErode/JobErode.odb,Step-1,Increment      5: Step Time =,    50.00,"TUBE-1",         10043,   5.87785E-03,   8.09017E-03,   762.500E-03,NA,NA,"",   10.0107E-03,            0.,   763.215E-03,   10.6566E-06,   1.11818E+03
C:/ALETube/PressureUpdate/LargeStep/DeformErode/JobErode.odb,Step-1,Increment      5: Step Time =,    50.00,"TUBE-1",         10009,   7.07107E-03,   7.07107E-03,   762.500E-03,NA,NA,"",   10.0107E-03,            0.,   763.215E-03,   10.6614E-06,   1.11908E+03
C:/ALETube/PressureUpdate/LargeStep/DeformErode/JobErode.odb,Step-1,Increment      5: Step Time =,    50.00,"TUBE-1",         10207,   5.87785E-03,   8.09017E-03,   775.000E-03,NA,NA,"",   10.0108E-03,   867.362E-21,   775.711E-03,   10.8314E-06,   1.13650E+03
C:/ALETube/PressureUpdate/LargeStep/DeformErode/JobErode.odb,Step-1,Increment      5: Step Time =,    50.00,"TUBE-1",         10173,   7.07107E-03,   7.07107E-03,   775.000E-03,NA,NA,"",   10.0108E-03,            0.,   775.711E-03,   10.8363E-06,   1.13743E+03
C:/ALETube/PressureUpdate/LargeStep/DeformErode/JobErode.odb,Step-1,Increment      5: Step Time =,    50.00,"TUBE-1",         10371,   5.87785E-03,   8.09017E-03,   787.500E-03,NA,NA,"",   10.0110E-03,            0.,   788.207E-03,   11.0062E-06,   1.15483E+03
C:/ALETube/PressureUpdate/LargeStep/DeformErode/JobErode.odb,Step-1,Increment      5: Step Time =,    50.00,"TUBE-1",         10337,   7.07107E-03,   7.07107E-03,   787.500E-03,NA,NA,"",   10.0110E-03,            0.,   788.207E-03,   11.0111E-06,   1.15577E+03
C:/ALETube/PressureUpdate/LargeStep/DeformErode/JobErode.odb,Step-1,Increment      5: Step Time =,    50.00,"TUBE-1",         10535,   5.87785E-03,   8.09017E-03,   800.000E-03,NA,NA,"",   10.0112E-03,            0.,   800.703E-03,   11.1810E-06,   1.17316E+03
C:/ALETube/PressureUpdate/LargeStep/DeformErode/JobErode.odb,Step-1,Increment      5: Step Time =,    50.00,"TUBE-1",         10501,   7.07107E-03,   7.07107E-03,   800.000E-03,NA,NA,"",   10.0112E-03,            0.,   800.703E-03,   11.1860E-06,   1.17411E+03
C:/ALETube/PressureUpdate/LargeStep/DeformErode/JobErode.odb,Step-1,Increment      5: Step Time =,    50.00,"TUBE-1",         10665,   7.07107E-03,   7.07107E-03,     812.5E-03,NA,NA,"",   10.0114E-03,            0.,   813.199E-03,   11.3609E-06,   1.19245E+03
C:/ALETube/PressureUpdate/LargeStep/DeformErode/JobErode.odb,Step-1,Increment      5: Step Time =,    50.00,"TUBE-1",         10699,   5.87785E-03,   8.09017E-03,     812.5E-03,NA,NA,"",   10.0114E-03,            0.,   813.199E-03,   11.3558E-06,   1.19148E+03
C:/ALETube/PressureUpdate/LargeStep/DeformErode/JobErode.odb,Step-1,Increment      5: Step Time =,    50.00,"TUBE-1",         10863,   5.87785E-03,   8.09017E-03,   825.000E-03,NA,NA,"",   10.0115E-03,            0.,   825.694E-03,   11.5306E-06,   1.20981E+03
C:/ALETube/PressureUpdate/LargeStep/DeformErode/JobErode.odb,Step-1,Increment      5: Step Time =,    50.00,"TUBE-1",         10829,   7.07107E-03,   7.07107E-03,   825.000E-03,NA,NA,"",   10.0115E-03,            0.,   825.694E-03,   11.5358E-06,   1.21079E+03
C:/ALETube/PressureUpdate/LargeStep/DeformErode/JobErode.odb,Step-1,Increment      5: Step Time =,    50.00,"TUBE-1",         11027,   5.87785E-03,   8.09017E-03,   837.500E-03,NA,NA,"",   10.0117E-03,   867.362E-21,   838.190E-03,   11.7054E-06,   1.22813E+03
C:/ALETube/PressureUpdate/LargeStep/DeformErode/JobErode.odb,Step-1,Increment      5: Step Time =,    50.00,"TUBE-1",         10993,   7.07107E-03,   7.07107E-03,   837.500E-03,NA,NA,"",   10.0117E-03,            0.,   838.190E-03,   11.7106E-06,   1.22913E+03
C:/ALETube/PressureUpdate/LargeStep/DeformErode/JobErode.odb,Step-1,Increment      5: Step Time =,    50.00,"TUBE-1",         11191,   5.87785E-03,   8.09017E-03,   850.000E-03,NA,NA,"",   10.0119E-03,   867.362E-21,   850.685E-03,   11.8802E-06,   1.24646E+03
C:/ALETube/PressureUpdate/LargeStep/DeformErode/JobErode.odb,Step-1,Increment      5: Step Time =,    50.00,"TUBE-1",         11157,   7.07107E-03,   7.07107E-03,   850.000E-03,NA,NA,"",   10.0119E-03,            0.,   850.685E-03,   11.8855E-06,   1.24747E+03
C:/ALETube/PressureUpdate/LargeStep/DeformErode/JobErode.odb,Step-1,Increment      5: Step Time =,    50.00,"TUBE-1",         11355,   5.87785E-03,   8.09017E-03,   862.500E-03,NA,NA,"",   10.0121E-03,            0.,   863.181E-03,   12.0550E-06,   1.26478E+03
C:/ALETube/PressureUpdate/LargeStep/DeformErode/JobErode.odb,Step-1,Increment      5: Step Time =,    50.00,"TUBE-1",         11321,   7.07107E-03,   7.07107E-03,   862.500E-03,NA,NA,"",   10.0121E-03,            0.,   863.181E-03,   12.0604E-06,   1.26581E+03
C:/ALETube/PressureUpdate/LargeStep/DeformErode/JobErode.odb,Step-1,Increment      5: Step Time =,    50.00,"TUBE-1",         11485,   7.07107E-03,   7.07107E-03,      875.E-03,NA,NA,"",   10.0122E-03,            0.,   875.676E-03,   12.2353E-06,   1.28415E+03
C:/ALETube/PressureUpdate/LargeStep/DeformErode/JobErode.odb,Step-1,Increment      5: Step Time =,    50.00,"TUBE-1",         11519,   5.87785E-03,   8.09017E-03,      875.E-03,NA,NA,"",   10.0122E-03,            0.,   875.676E-03,   12.2298E-06,   1.28311E+03
C:/ALETube/PressureUpdate/LargeStep/DeformErode/JobErode.odb,Step-1,Increment      5: Step Time =,    50.00,"TUBE-1",         11683,   5.87785E-03,   8.09017E-03,   887.500E-03,NA,NA,"",   10.0124E-03,            0.,   888.172E-03,   12.4046E-06,   1.30143E+03
C:/ALETube/PressureUpdate/LargeStep/DeformErode/JobErode.odb,Step-1,Increment      5: Step Time =,    50.00,"TUBE-1",         11649,   7.07107E-03,   7.07107E-03,   887.500E-03,NA,NA,"",   10.0124E-03,            0.,   888.172E-03,   12.4102E-06,   1.30249E+03
C:/ALETube/PressureUpdate/LargeStep/DeformErode/JobErode.odb,Step-1,Increment      5: Step Time =,    50.00,"TUBE-1",         11847,   5.87785E-03,   8.09017E-03,   900.000E-03,NA,NA,"",   10.0126E-03,            0.,   900.667E-03,   12.5794E-06,   1.31976E+03
C:/ALETube/PressureUpdate/LargeStep/DeformErode/JobErode.odb,Step-1,Increment      5: Step Time =,    50.00,"TUBE-1",         11813,   7.07107E-03,   7.07107E-03,   900.000E-03,NA,NA,"",   10.0126E-03,            0.,   900.667E-03,   12.5851E-06,   1.32083E+03
C:/ALETube/PressureUpdate/LargeStep/DeformErode/JobErode.odb,Step-1,Increment      5: Step Time =,    50.00,"TUBE-1",         12011,   5.87785E-03,   8.09017E-03,   912.500E-03,NA,NA,"",   10.0128E-03,            0.,   913.162E-03,   12.7542E-06,   1.33808E+03
C:/ALETube/PressureUpdate/LargeStep/DeformErode/JobErode.odb,Step-1,Increment      5: Step Time =,    50.00,"TUBE-1",         11977,   7.07107E-03,   7.07107E-03,   912.500E-03,NA,NA,"",   10.0128E-03,            0.,   913.162E-03,   12.7600E-06,   1.33917E+03
C:/ALETube/PressureUpdate/LargeStep/DeformErode/JobErode.odb,Step-1,Increment      5: Step Time =,    50.00,"TUBE-1",         12175,   5.87785E-03,   8.09017E-03,   925.000E-03,NA,NA,"",   10.0129E-03,            0.,   925.658E-03,   12.9291E-06,   1.35641E+03
C:/ALETube/PressureUpdate/LargeStep/DeformErode/JobErode.odb,Step-1,Increment      5: Step Time =,    50.00,"TUBE-1",         12141,   7.07107E-03,   7.07107E-03,   925.000E-03,NA,NA,"",   10.0129E-03,            0.,   925.658E-03,   12.9349E-06,   1.35751E+03
C:/ALETube/PressureUpdate/LargeStep/DeformErode/JobErode.odb,Step-1,Increment      5: Step Time =,    50.00,"TUBE-1",         12305,   7.07107E-03,   7.07107E-03,     937.5E-03,NA,NA,"",   10.0131E-03,            0.,   938.153E-03,   13.1098E-06,   1.37585E+03
C:/ALETube/PressureUpdate/LargeStep/DeformErode/JobErode.odb,Step-1,Increment      5: Step Time =,    50.00,"TUBE-1",         12339,   5.87785E-03,   8.09017E-03,     937.5E-03,NA,NA,"",   10.0131E-03,            0.,   938.153E-03,   13.1039E-06,   1.37473E+03
C:/ALETube/PressureUpdate/LargeStep/DeformErode/JobErode.odb,Step-1,Increment      5: Step Time =,    50.00,"TUBE-1",         12503,   5.87785E-03,   8.09017E-03,   950.000E-03,NA,NA,"",   10.0133E-03,  -867.362E-21,   950.648E-03,   13.2787E-06,   1.39306E+03
C:/ALETube/PressureUpdate/LargeStep/DeformErode/JobErode.odb,Step-1,Increment      5: Step Time =,    50.00,"TUBE-1",         12469,   7.07107E-03,   7.07107E-03,   950.000E-03,NA,NA,"",   10.0133E-03,            0.,   950.648E-03,   13.2847E-06,   1.39419E+03
C:/ALETube/PressureUpdate/LargeStep/DeformErode/JobErode.odb,Step-1,Increment      5: Step Time =,    50.00,"TUBE-1",         12667,   5.87785E-03,   8.09017E-03,   962.500E-03,NA,NA,"",   10.0135E-03,            0.,   963.143E-03,   13.4535E-06,   1.41138E+03
C:/ALETube/PressureUpdate/LargeStep/DeformErode/JobErode.odb,Step-1,Increment      5: Step Time =,    50.00,"TUBE-1",         12633,   7.07107E-03,   7.07107E-03,   962.500E-03,NA,NA,"",   10.0135E-03,            0.,   963.143E-03,   13.4596E-06,   1.41253E+03
C:/ALETube/PressureUpdate/LargeStep/DeformErode/JobErode.odb,Step-1,Increment      5: Step Time =,    50.00,"TUBE-1",         12831,   5.87785E-03,   8.09017E-03,   975.000E-03,NA,NA,"",   10.0136E-03,            0.,   975.638E-03,   13.6284E-06,   1.42971E+03
C:/ALETube/PressureUpdate/LargeStep/DeformErode/JobErode.odb,Step-1,Increment      5: Step Time =,    50.00,"TUBE-1",         12797,   7.07107E-03,   7.07107E-03,   975.000E-03,NA,NA,"",   10.0136E-03,            0.,   975.638E-03,   13.6345E-06,   1.43087E+03
C:/ALETube/PressureUpdate/LargeStep/DeformErode/JobErode.odb,Step-1,Increment      5: Step Time =,    50.00,"TUBE-1",         12995,   5.87785E-03,   8.09017E-03,   987.500E-03,NA,NA,"",   10.0138E-03,  -867.362E-21,   988.132E-03,   13.8032E-06,   1.44803E+03
C:/ALETube/PressureUpdate/LargeStep/DeformErode/JobErode.odb,Step-1,Increment      5: Step Time =,    50.00,"TUBE-1",         12961,   7.07107E-03,   7.07107E-03,   987.500E-03,NA,NA,"",   10.0138E-03,            0.,   988.132E-03,   13.8094E-06,   1.44921E+03
C:/ALETube/PressureUpdate/LargeStep/DeformErode/JobErode.odb,Step-1,Increment      5: Step Time =,    50.00,"TUBE-1",         13125,   7.07107E-03,   7.07107E-03,            1.,NA,NA,"",   10.0140E-03,            0.,       1.00063,   13.9843E-06,   1.46754E+03
C:/ALETube/PressureUpdate/LargeStep/DeformErode/JobErode.odb,Step-1,Increment      5: Step Time =,    50.00,"TUBE-1",         13159,   5.87785E-03,   8.09017E-03,            1.,NA,NA,"",   10.0140E-03,            0.,       1.00063,   13.9780E-06,   1.46635E+03
C:/ALETube/PressureUpdate/LargeStep/DeformErode/JobErode.odb,Step-1,Increment      5: Step Time =,    50.00,"TUBE-1",         13323,   5.87785E-03,   8.09017E-03,       1.01250,NA,NA,"",   10.0142E-03,            0.,       1.01312,   14.1529E-06,   1.48468E+03
C:/ALETube/PressureUpdate/LargeStep/DeformErode/JobErode.odb,Step-1,Increment      5: Step Time =,    50.00,"TUBE-1",         13289,   7.07107E-03,   7.07107E-03,       1.01250,NA,NA,"",   10.0142E-03,            0.,       1.01312,   14.1592E-06,   1.48588E+03
C:/ALETube/PressureUpdate/LargeStep/DeformErode/JobErode.odb,Step-1,Increment      5: Step Time =,    50.00,"TUBE-1",         13487,   5.87785E-03,   8.09017E-03,       1.02500,NA,NA,"",   10.0143E-03,            0.,       1.02562,   14.3277E-06,   1.50300E+03
C:/ALETube/PressureUpdate/LargeStep/DeformErode/JobErode.odb,Step-1,Increment      5: Step Time =,    50.00,"TUBE-1",         13453,   7.07107E-03,   7.07107E-03,       1.02500,NA,NA,"",   10.0143E-03,            0.,       1.02562,   14.3342E-06,   1.50422E+03
C:/ALETube/PressureUpdate/LargeStep/DeformErode/JobErode.odb,Step-1,Increment      5: Step Time =,    50.00,"TUBE-1",         13617,   7.07107E-03,   7.07107E-03,       1.03750,NA,NA,"",   10.0145E-03,            0.,       1.03811,   14.5091E-06,   1.52256E+03
C:/ALETube/PressureUpdate/LargeStep/DeformErode/JobErode.odb,Step-1,Increment      5: Step Time =,    50.00,"TUBE-1",         13651,   5.87785E-03,   8.09017E-03,       1.03750,NA,NA,"",   10.0145E-03,  -867.362E-21,       1.03811,   14.5026E-06,   1.52132E+03
C:/ALETube/PressureUpdate/LargeStep/DeformErode/JobErode.odb,Step-1,Increment      5: Step Time =,    50.00,"TUBE-1",         13815,   5.87785E-03,   8.09017E-03,       1.05000,NA,NA,"",   10.0147E-03,            0.,       1.05061,   14.6774E-06,   1.53965E+03
C:/ALETube/PressureUpdate/LargeStep/DeformErode/JobErode.odb,Step-1,Increment      5: Step Time =,    50.00,"TUBE-1",         13781,   7.07107E-03,   7.07107E-03,       1.05000,NA,NA,"",   10.0147E-03,            0.,       1.05061,   14.6840E-06,   1.54090E+03
C:/ALETube/PressureUpdate/LargeStep/DeformErode/JobErode.odb,Step-1,Increment      5: Step Time =,    50.00,"TUBE-1",         13979,   5.87785E-03,   8.09017E-03,        1.0625,NA,NA,"",   10.0149E-03,  -867.362E-21,       1.06310,   14.8523E-06,   1.55797E+03
C:/ALETube/PressureUpdate/LargeStep/DeformErode/JobErode.odb,Step-1,Increment      5: Step Time =,    50.00,"TUBE-1",         13945,   7.07107E-03,   7.07107E-03,        1.0625,NA,NA,"",   10.0149E-03,            0.,       1.06310,   14.8589E-06,   1.55923E+03
C:/ALETube/PressureUpdate/LargeStep/DeformErode/JobErode.odb,Step-1,Increment      5: Step Time =,    50.00,"TUBE-1",         14109,   7.07107E-03,   7.07107E-03,       1.07500,NA,NA,"",   10.0150E-03,            0.,       1.07559,   15.0339E-06,   1.57757E+03
C:/ALETube/PressureUpdate/LargeStep/DeformErode/JobErode.odb,Step-1,Increment      5: Step Time =,    50.00,"TUBE-1",         14143,   5.87785E-03,   8.09017E-03,       1.07500,NA,NA,"",   10.0150E-03,            0.,       1.07559,   15.0271E-06,   1.57629E+03
C:/ALETube/PressureUpdate/LargeStep/DeformErode/JobErode.odb,Step-1,Increment      5: Step Time =,    50.00,"TUBE-1",         14307,   5.87785E-03,   8.09017E-03,       1.08750,NA,NA,"",   10.0152E-03,            0.,       1.08809,   15.2020E-06,   1.59461E+03
C:/ALETube/PressureUpdate/LargeStep/DeformErode/JobErode.odb,Step-1,Increment      5: Step Time =,    50.00,"TUBE-1",         14273,   7.07107E-03,   7.07107E-03,       1.08750,NA,NA,"",   10.0152E-03,            0.,       1.08809,   15.2088E-06,   1.59591E+03
C:/ALETube/PressureUpdate/LargeStep/DeformErode/JobErode.odb,Step-1,Increment      5: Step Time =,    50.00,"TUBE-1",         14471,   5.87785E-03,   8.09017E-03,       1.10000,NA,NA,"",   10.0154E-03,            0.,       1.10058,   15.3768E-06,   1.61294E+03
C:/ALETube/PressureUpdate/LargeStep/DeformErode/JobErode.odb,Step-1,Increment      5: Step Time =,    50.00,"TUBE-1",         14437,   7.07107E-03,   7.07107E-03,       1.10000,NA,NA,"",   10.0154E-03,            0.,       1.10058,   15.3837E-06,   1.61425E+03
C:/ALETube/PressureUpdate/LargeStep/DeformErode/JobErode.odb,Step-1,Increment      5: Step Time =,    50.00,"TUBE-1",         14635,   5.87785E-03,   8.09017E-03,       1.11250,NA,NA,"",   10.0156E-03,            0.,       1.11308,   15.5517E-06,   1.63126E+03
C:/ALETube/PressureUpdate/LargeStep/DeformErode/JobErode.odb,Step-1,Increment      5: Step Time =,    50.00,"TUBE-1",         14601,   7.07107E-03,   7.07107E-03,       1.11250,NA,NA,"",   10.0156E-03,            0.,       1.11308,   15.5587E-06,   1.63258E+03
C:/ALETube/PressureUpdate/LargeStep/DeformErode/JobErode.odb,Step-1,Increment      5: Step Time =,    50.00,"TUBE-1",         14799,   5.87785E-03,   8.09017E-03,         1.125,NA,NA,"",   10.0157E-03,            0.,       1.12557,   15.7265E-06,   1.64958E+03
C:/ALETube/PressureUpdate/LargeStep/DeformErode/JobErode.odb,Step-1,Increment      5: Step Time =,    50.00,"TUBE-1",         14765,   7.07107E-03,   7.07107E-03,         1.125,NA,NA,"",   10.0157E-03,            0.,       1.12557,   15.7336E-06,   1.65092E+03
C:/ALETube/PressureUpdate/LargeStep/DeformErode/JobErode.odb,Step-1,Increment      5: Step Time =,    50.00,"TUBE-1",         14929,   7.07107E-03,   7.07107E-03,       1.13750,NA,NA,"",   10.0159E-03,            0.,       1.13807,   15.9086E-06,   1.66926E+03
C:/ALETube/PressureUpdate/LargeStep/DeformErode/JobErode.odb,Step-1,Increment      5: Step Time =,    50.00,"TUBE-1",         14963,   5.87785E-03,   8.09017E-03,       1.13750,NA,NA,"",   10.0159E-03,            0.,       1.13807,   15.9014E-06,   1.66790E+03
C:/ALETube/PressureUpdate/LargeStep/DeformErode/JobErode.odb,Step-1,Increment      5: Step Time =,    50.00,"TUBE-1",         15127,   5.87785E-03,   8.09017E-03,       1.15000,NA,NA,"",   10.0161E-03,            0.,       1.15056,   16.0763E-06,   1.68622E+03
C:/ALETube/PressureUpdate/LargeStep/DeformErode/JobErode.odb,Step-1,Increment      5: Step Time =,    50.00,"TUBE-1",         15093,   7.07107E-03,   7.07107E-03,       1.15000,NA,NA,"",   10.0161E-03,            0.,       1.15056,   16.0835E-06,   1.68759E+03
C:/ALETube/PressureUpdate/LargeStep/DeformErode/JobErode.odb,Step-1,Increment      5: Step Time =,    50.00,"TUBE-1",         15291,   5.87785E-03,   8.09017E-03,       1.16250,NA,NA,"",   10.0163E-03,            0.,       1.16305,   16.2511E-06,   1.70455E+03
C:/ALETube/PressureUpdate/LargeStep/DeformErode/JobErode.odb,Step-1,Increment      5: Step Time =,    50.00,"TUBE-1",         15257,   7.07107E-03,   7.07107E-03,       1.16250,NA,NA,"",   10.0163E-03,            0.,       1.16305,   16.2585E-06,   1.70593E+03
C:/ALETube/PressureUpdate/LargeStep/DeformErode/JobErode.odb,Step-1,Increment      5: Step Time =,    50.00,"TUBE-1",         15455,   5.87785E-03,   8.09017E-03,       1.17500,NA,NA,"",   10.0164E-03,  -867.362E-21,       1.17555,   16.4260E-06,   1.72287E+03
C:/ALETube/PressureUpdate/LargeStep/DeformErode/JobErode.odb,Step-1,Increment      5: Step Time =,    50.00,"TUBE-1",         15421,   7.07107E-03,   7.07107E-03,       1.17500,NA,NA,"",   10.0164E-03,            0.,       1.17555,   16.4334E-06,   1.72427E+03
C:/ALETube/PressureUpdate/LargeStep/DeformErode/JobErode.odb,Step-1,Increment      5: Step Time =,    50.00,"TUBE-1",         15619,   5.87785E-03,   8.09017E-03,        1.1875,NA,NA,"",   10.0166E-03,   867.362E-21,       1.18804,   16.6009E-06,   1.74119E+03
C:/ALETube/PressureUpdate/LargeStep/DeformErode/JobErode.odb,Step-1,Increment      5: Step Time =,    50.00,"TUBE-1",         15585,   7.07107E-03,   7.07107E-03,        1.1875,NA,NA,"",   10.0166E-03,            0.,       1.18804,   16.6084E-06,   1.74260E+03
C:/ALETube/PressureUpdate/LargeStep/DeformErode/JobErode.odb,Step-1,Increment      5: Step Time =,    50.00,"TUBE-1",         15749,   7.07107E-03,   7.07107E-03,       1.20000,NA,NA,"",   10.0168E-03,            0.,       1.20053,   16.7833E-06,   1.76094E+03
C:/ALETube/PressureUpdate/LargeStep/DeformErode/JobErode.odb,Step-1,Increment      5: Step Time =,    50.00,"TUBE-1",         15783,   5.87785E-03,   8.09017E-03,       1.20000,NA,NA,"",   10.0168E-03,            0.,       1.20053,   16.7758E-06,   1.75951E+03
C:/ALETube/PressureUpdate/LargeStep/DeformErode/JobErode.odb,Step-1,Increment      5: Step Time =,    50.00,"TUBE-1",         15947,   5.87785E-03,   8.09017E-03,       1.21250,NA,NA,"",   10.0170E-03,            0.,       1.21303,   16.9507E-06,   1.77783E+03
C:/ALETube/PressureUpdate/LargeStep/DeformErode/JobErode.odb,Step-1,Increment      5: Step Time =,    50.00,"TUBE-1",         15913,   7.07107E-03,   7.07107E-03,       1.21250,NA,NA,"",   10.0170E-03,            0.,       1.21303,   16.9583E-06,   1.77927E+03
C:/ALETube/PressureUpdate/LargeStep/DeformErode/JobErode.odb,Step-1,Increment      5: Step Time =,    50.00,"TUBE-1",         16111,   5.87785E-03,   8.09017E-03,       1.22500,NA,NA,"",   10.0171E-03,  -867.362E-21,       1.22552,   17.1255E-06,   1.79615E+03
C:/ALETube/PressureUpdate/LargeStep/DeformErode/JobErode.odb,Step-1,Increment      5: Step Time =,    50.00,"TUBE-1",         16077,   7.07107E-03,   7.07107E-03,       1.22500,NA,NA,"",   10.0171E-03,            0.,       1.22552,   17.1332E-06,   1.79761E+03
C:/ALETube/PressureUpdate/LargeStep/DeformErode/JobErode.odb,Step-1,Increment      5: Step Time =,    50.00,"TUBE-1",         16275,   5.87785E-03,   8.09017E-03,       1.23750,NA,NA,"",   10.0173E-03,  -867.362E-21,       1.23802,   17.3004E-06,   1.81447E+03
C:/ALETube/PressureUpdate/LargeStep/DeformErode/JobErode.odb,Step-1,Increment      5: Step Time =,    50.00,"TUBE-1",         16241,   7.07107E-03,   7.07107E-03,       1.23750,NA,NA,"",   10.0173E-03,            0.,       1.23802,   17.3082E-06,   1.81594E+03
C:/ALETube/PressureUpdate/LargeStep/DeformErode/JobErode.odb,Step-1,Increment      5: Step Time =,    50.00,"TUBE-1",         16439,   5.87785E-03,   8.09017E-03,          1.25,NA,NA,"",   10.0175E-03,            0.,       1.25051,   17.4753E-06,   1.83279E+03
C:/ALETube/PressureUpdate/LargeStep/DeformErode/JobErode.odb,Step-1,Increment      5: Step Time =,    50.00,"TUBE-1",         16405,   7.07107E-03,   7.07107E-03,          1.25,NA,NA,"",   10.0175E-03,            0.,       1.25051,   17.4832E-06,   1.83428E+03
C:/ALETube/PressureUpdate/LargeStep/DeformErode/JobErode.odb,Step-1,Increment      5: Step Time =,    50.00,"TUBE-1",         16569,   7.07107E-03,   7.07107E-03,       1.26250,NA,NA,"",   10.0177E-03,            0.,       1.26300,   17.6581E-06,   1.85261E+03
C:/ALETube/PressureUpdate/LargeStep/DeformErode/JobErode.odb,Step-1,Increment      5: Step Time =,    50.00,"TUBE-1",         16603,   5.87785E-03,   8.09017E-03,       1.26250,NA,NA,"",   10.0177E-03,            0.,       1.26300,   17.6502E-06,   1.85111E+03
C:/ALETube/PressureUpdate/LargeStep/DeformErode/JobErode.odb,Step-1,Increment      5: Step Time =,    50.00,"TUBE-1",         16767,   5.87785E-03,   8.09017E-03,       1.27500,NA,NA,"",   10.0178E-03,   867.362E-21,       1.27550,   17.8251E-06,   1.86943E+03
C:/ALETube/PressureUpdate/LargeStep/DeformErode/JobErode.odb,Step-1,Increment      5: Step Time =,    50.00,"TUBE-1",         16733,   7.07107E-03,   7.07107E-03,       1.27500,NA,NA,"",   10.0178E-03,            0.,       1.27550,   17.8331E-06,   1.87095E+03
C:/ALETube/PressureUpdate/LargeStep/DeformErode/JobErode.odb,Step-1,Increment      5: Step Time =,    50.00,"TUBE-1",         16931,   5.87785E-03,   8.09017E-03,       1.28750,NA,NA,"",   10.0180E-03,   867.362E-21,       1.28799,   18.0000E-06,   1.88775E+03
C:/ALETube/PressureUpdate/LargeStep/DeformErode/JobErode.odb,Step-1,Increment      5: Step Time =,    50.00,"TUBE-1",         16897,   7.07107E-03,   7.07107E-03,       1.28750,NA,NA,"",   10.0180E-03,            0.,       1.28799,   18.0081E-06,   1.88928E+03
C:/ALETube/PressureUpdate/LargeStep/DeformErode/JobErode.odb,Step-1,Increment      5: Step Time =,    50.00,"TUBE-1",         17095,   5.87785E-03,   8.09017E-03,       1.30000,NA,NA,"",   10.0182E-03,  -867.362E-21,       1.30048,   18.1749E-06,   1.90607E+03
C:/ALETube/PressureUpdate/LargeStep/DeformErode/JobErode.odb,Step-1,Increment      5: Step Time =,    50.00,"TUBE-1",         17061,   7.07107E-03,   7.07107E-03,       1.30000,NA,NA,"",   10.0182E-03,            0.,       1.30048,   18.1831E-06,   1.90762E+03
C:/ALETube/PressureUpdate/LargeStep/DeformErode/JobErode.odb,Step-1,Increment      5: Step Time =,    50.00,"TUBE-1",         17259,   5.87785E-03,   8.09017E-03,        1.3125,NA,NA,"",   10.0183E-03,            0.,       1.31298,   18.3498E-06,   1.92439E+03
C:/ALETube/PressureUpdate/LargeStep/DeformErode/JobErode.odb,Step-1,Increment      5: Step Time =,    50.00,"TUBE-1",         17225,   7.07107E-03,   7.07107E-03,        1.3125,NA,NA,"",   10.0184E-03,            0.,       1.31298,   18.3580E-06,   1.92595E+03
C:/ALETube/PressureUpdate/LargeStep/DeformErode/JobErode.odb,Step-1,Increment      5: Step Time =,    50.00,"TUBE-1",         17389,   7.07107E-03,   7.07107E-03,       1.32500,NA,NA,"",   10.0185E-03,            0.,       1.32547,   18.5330E-06,   1.94429E+03
C:/ALETube/PressureUpdate/LargeStep/DeformErode/JobErode.odb,Step-1,Increment      5: Step Time =,    50.00,"TUBE-1",         17423,   5.87785E-03,   8.09017E-03,       1.32500,NA,NA,"",   10.0185E-03,            0.,       1.32547,   18.5247E-06,   1.94271E+03
C:/ALETube/PressureUpdate/LargeStep/DeformErode/JobErode.odb,Step-1,Increment      5: Step Time =,    50.00,"TUBE-1",         17587,   5.87785E-03,   8.09017E-03,       1.33750,NA,NA,"",   10.0187E-03,            0.,       1.33796,   18.6996E-06,   1.96103E+03
C:/ALETube/PressureUpdate/LargeStep/DeformErode/JobErode.odb,Step-1,Increment      5: Step Time =,    50.00,"TUBE-1",         17553,   7.07107E-03,   7.07107E-03,       1.33750,NA,NA,"",   10.0187E-03,            0.,       1.33796,   18.7080E-06,   1.96262E+03
C:/ALETube/PressureUpdate/LargeStep/DeformErode/JobErode.odb,Step-1,Increment      5: Step Time =,    50.00,"TUBE-1",         17751,   5.87785E-03,   8.09017E-03,       1.35000,NA,NA,"",   10.0189E-03,            0.,       1.35045,   18.8745E-06,   1.97935E+03
C:/ALETube/PressureUpdate/LargeStep/DeformErode/JobErode.odb,Step-1,Increment      5: Step Time =,    50.00,"TUBE-1",         17717,   7.07107E-03,   7.07107E-03,       1.35000,NA,NA,"",   10.0189E-03,            0.,       1.35045,   18.8830E-06,   1.98096E+03
C:/ALETube/PressureUpdate/LargeStep/DeformErode/JobErode.odb,Step-1,Increment      5: Step Time =,    50.00,"TUBE-1",         17915,   5.87785E-03,   8.09017E-03,       1.36250,NA,NA,"",   10.0190E-03,            0.,       1.36295,   19.0494E-06,   1.99767E+03
C:/ALETube/PressureUpdate/LargeStep/DeformErode/JobErode.odb,Step-1,Increment      5: Step Time =,    50.00,"TUBE-1",         17881,   7.07107E-03,   7.07107E-03,       1.36250,NA,NA,"",   10.0191E-03,            0.,       1.36295,   19.0580E-06,   1.99929E+03
C:/ALETube/PressureUpdate/LargeStep/DeformErode/JobErode.odb,Step-1,Increment      5: Step Time =,    50.00,"TUBE-1",         18079,   5.87785E-03,   8.09017E-03,         1.375,NA,NA,"",   10.0192E-03,            0.,       1.37544,   19.2244E-06,   2.01599E+03
C:/ALETube/PressureUpdate/LargeStep/DeformErode/JobErode.odb,Step-1,Increment      5: Step Time =,    50.00,"TUBE-1",         18045,   7.07107E-03,   7.07107E-03,         1.375,NA,NA,"",   10.0192E-03,            0.,       1.37544,   19.2330E-06,   2.01762E+03
C:/ALETube/PressureUpdate/LargeStep/DeformErode/JobErode.odb,Step-1,Increment      5: Step Time =,    50.00,"TUBE-1",         18209,   7.07107E-03,   7.07107E-03,       1.38750,NA,NA,"",   10.0194E-03,            0.,       1.38793,   19.4080E-06,   2.03596E+03
C:/ALETube/PressureUpdate/LargeStep/DeformErode/JobErode.odb,Step-1,Increment      5: Step Time =,    50.00,"TUBE-1",         18243,   5.87785E-03,   8.09017E-03,       1.38750,NA,NA,"",   10.0194E-03,  -867.362E-21,       1.38793,   19.3993E-06,   2.03431E+03
C:/ALETube/PressureUpdate/LargeStep/DeformErode/JobErode.odb,Step-1,Increment      5: Step Time =,    50.00,"TUBE-1",         18407,   5.87785E-03,   8.09017E-03,       1.40000,NA,NA,"",   10.0196E-03,  -867.362E-21,       1.40043,   19.5742E-06,   2.05262E+03
C:/ALETube/PressureUpdate/LargeStep/DeformErode/JobErode.odb,Step-1,Increment      5: Step Time =,    50.00,"TUBE-1",         18373,   7.07107E-03,   7.07107E-03,       1.40000,NA,NA,"",   10.0196E-03,            0.,       1.40043,   19.5830E-06,   2.05429E+03
C:/ALETube/PressureUpdate/LargeStep/DeformErode/JobErode.odb,Step-1,Increment      5: Step Time =,    50.00,"TUBE-1",         18571,   5.87785E-03,   8.09017E-03,       1.41250,NA,NA,"",   10.0197E-03,            0.,       1.41292,   19.7491E-06,   2.07094E+03
C:/ALETube/PressureUpdate/LargeStep/DeformErode/JobErode.odb,Step-1,Increment      5: Step Time =,    50.00,"TUBE-1",         18537,   7.07107E-03,   7.07107E-03,       1.41250,NA,NA,"",   10.0198E-03,            0.,       1.41292,   19.7580E-06,   2.07262E+03
C:/ALETube/PressureUpdate/LargeStep/DeformErode/JobErode.odb,Step-1,Increment      5: Step Time =,    50.00,"TUBE-1",         18735,   5.87785E-03,   8.09017E-03,       1.42500,NA,NA,"",   10.0199E-03,            0.,       1.42541,   19.9240E-06,   2.08926E+03
C:/ALETube/PressureUpdate/LargeStep/DeformErode/JobErode.odb,Step-1,Increment      5: Step Time =,    50.00,"TUBE-1",         18701,   7.07107E-03,   7.07107E-03,       1.42500,NA,NA,"",   10.0199E-03,            0.,       1.42541,   19.9330E-06,   2.09096E+03
C:/ALETube/PressureUpdate/LargeStep/DeformErode/JobErode.odb,Step-1,Increment      5: Step Time =,    50.00,"TUBE-1",         18899,   5.87785E-03,   8.09017E-03,        1.4375,NA,NA,"",   10.0201E-03,            0.,       1.43790,   20.0990E-06,   2.10758E+03
C:/ALETube/PressureUpdate/LargeStep/DeformErode/JobErode.odb,Step-1,Increment      5: Step Time =,    50.00,"TUBE-1",         18865,   7.07107E-03,   7.07107E-03,        1.4375,NA,NA,"",   10.0201E-03,            0.,       1.43790,   20.1080E-06,   2.10929E+03
C:/ALETube/PressureUpdate/LargeStep/DeformErode/JobErode.odb,Step-1,Increment      5: Step Time =,    50.00,"TUBE-1",         19029,   7.07107E-03,   7.07107E-03,       1.45000,NA,NA,"",   10.0203E-03,            0.,       1.45040,   20.2830E-06,   2.12762E+03
C:/ALETube/PressureUpdate/LargeStep/DeformErode/JobErode.odb,Step-1,Increment      5: Step Time =,    50.00,"TUBE-1",         19063,   5.87785E-03,   8.09017E-03,       1.45000,NA,NA,"",   10.0203E-03,            0.,       1.45040,   20.2739E-06,   2.12590E+03
C:/ALETube/PressureUpdate/LargeStep/DeformErode/JobErode.odb,Step-1,Increment      5: Step Time =,    50.00,"TUBE-1",         19227,   5.87785E-03,   8.09017E-03,       1.46250,NA,NA,"",   10.0204E-03,  -867.362E-21,       1.46289,   20.4488E-06,   2.14421E+03
C:/ALETube/PressureUpdate/LargeStep/DeformErode/JobErode.odb,Step-1,Increment      5: Step Time =,    50.00,"TUBE-1",         19193,   7.07107E-03,   7.07107E-03,       1.46250,NA,NA,"",   10.0205E-03,            0.,       1.46289,   20.4580E-06,   2.14595E+03
C:/ALETube/PressureUpdate/LargeStep/DeformErode/JobErode.odb,Step-1,Increment      5: Step Time =,    50.00,"TUBE-1",         19391,   5.87785E-03,   8.09017E-03,       1.47500,NA,NA,"",   10.0206E-03,            0.,       1.47538,   20.6238E-06,   2.16253E+03
C:/ALETube/PressureUpdate/LargeStep/DeformErode/JobErode.odb,Step-1,Increment      5: Step Time =,    50.00,"TUBE-1",         19357,   7.07107E-03,   7.07107E-03,       1.47500,NA,NA,"",   10.0206E-03,            0.,       1.47538,   20.6330E-06,   2.16429E+03
C:/ALETube/PressureUpdate/LargeStep/DeformErode/JobErode.odb,Step-1,Increment      5: Step Time =,    50.00,"TUBE-1",         19555,   5.87785E-03,   8.09017E-03,       1.48750,NA,NA,"",   10.0208E-03,  -867.362E-21,       1.48787,   20.7987E-06,   2.18085E+03
C:/ALETube/PressureUpdate/LargeStep/DeformErode/JobErode.odb,Step-1,Increment      5: Step Time =,    50.00,"TUBE-1",         19521,   7.07107E-03,   7.07107E-03,       1.48750,NA,NA,"",   10.0208E-03,            0.,       1.48787,   20.8080E-06,   2.18262E+03
C:/ALETube/PressureUpdate/LargeStep/DeformErode/JobErode.odb,Step-1,Increment      5: Step Time =,    50.00,"TUBE-1",         19719,   5.87785E-03,   8.09017E-03,           1.5,NA,NA,"",   10.0210E-03,            0.,       1.50037,   20.9736E-06,   2.19916E+03
C:/ALETube/PressureUpdate/LargeStep/DeformErode/JobErode.odb,Step-1,Increment      5: Step Time =,    50.00,"TUBE-1",         19685,   7.07107E-03,   7.07107E-03,           1.5,NA,NA,"",   10.0210E-03,            0.,       1.50037,   20.9831E-06,   2.20095E+03
C:/ALETube/PressureUpdate/LargeStep/DeformErode/JobErode.odb,Step-1,Increment      5: Step Time =,    50.00,"TUBE-1",         19849,   7.07107E-03,   7.07107E-03,       1.51250,NA,NA,"",   10.0212E-03,            0.,       1.51286,   21.1581E-06,   2.21928E+03
C:/ALETube/PressureUpdate/LargeStep/DeformErode/JobErode.odb,Step-1,Increment      5: Step Time =,    50.00,"TUBE-1",         19883,   5.87785E-03,   8.09017E-03,       1.51250,NA,NA,"",   10.0211E-03,            0.,       1.51286,   21.1486E-06,   2.21748E+03
C:/ALETube/PressureUpdate/LargeStep/DeformErode/JobErode.odb,Step-1,Increment      5: Step Time =,    50.00,"TUBE-1",         20047,   5.87785E-03,   8.09017E-03,       1.52500,NA,NA,"",   10.0213E-03,  -867.362E-21,       1.52535,   21.3235E-06,   2.23580E+03
C:/ALETube/PressureUpdate/LargeStep/DeformErode/JobErode.odb,Step-1,Increment      5: Step Time =,    50.00,"TUBE-1",         20013,   7.07107E-03,   7.07107E-03,       1.52500,NA,NA,"",   10.0213E-03,            0.,       1.52535,   21.3331E-06,   2.23761E+03
C:/ALETube/PressureUpdate/LargeStep/DeformErode/JobErode.odb,Step-1,Increment      5: Step Time =,    50.00,"TUBE-1",         20211,   5.87785E-03,   8.09017E-03,       1.53750,NA,NA,"",   10.0215E-03,            0.,       1.53784,   21.4985E-06,   2.25411E+03
C:/ALETube/PressureUpdate/LargeStep/DeformErode/JobErode.odb,Step-1,Increment      5: Step Time =,    50.00,"TUBE-1",         20177,   7.07107E-03,   7.07107E-03,       1.53750,NA,NA,"",   10.0215E-03,            0.,       1.53784,   21.5081E-06,   2.25594E+03
C:/ALETube/PressureUpdate/LargeStep/DeformErode/JobErode.odb,Step-1,Increment      5: Step Time =,    50.00,"TUBE-1",         20375,   5.87785E-03,   8.09017E-03,       1.55000,NA,NA,"",   10.0217E-03,            0.,       1.55033,   21.6734E-06,   2.27243E+03
C:/ALETube/PressureUpdate/LargeStep/DeformErode/JobErode.odb,Step-1,Increment      5: Step Time =,    50.00,"TUBE-1",         20341,   7.07107E-03,   7.07107E-03,       1.55000,NA,NA,"",   10.0217E-03,            0.,       1.55033,   21.6832E-06,   2.27427E+03
C:/ALETube/PressureUpdate/LargeStep/DeformErode/JobErode.odb,Step-1,Increment      5: Step Time =,    50.00,"TUBE-1",         20539,   5.87785E-03,   8.09017E-03,        1.5625,NA,NA,"",   10.0218E-03,            0.,       1.56283,   21.8484E-06,   2.29075E+03
C:/ALETube/PressureUpdate/LargeStep/DeformErode/JobErode.odb,Step-1,Increment      5: Step Time =,    50.00,"TUBE-1",         20505,   7.07107E-03,   7.07107E-03,        1.5625,NA,NA,"",   10.0219E-03,            0.,       1.56283,   21.8582E-06,   2.29261E+03
C:/ALETube/PressureUpdate/LargeStep/DeformErode/JobErode.odb,Step-1,Increment      5: Step Time =,    50.00,"TUBE-1",         20669,   7.07107E-03,   7.07107E-03,       1.57500,NA,NA,"",   10.0220E-03,            0.,       1.57532,   22.0332E-06,   2.31094E+03
C:/ALETube/PressureUpdate/LargeStep/DeformErode/JobErode.odb,Step-1,Increment      5: Step Time =,    50.00,"TUBE-1",         20703,   5.87785E-03,   8.09017E-03,       1.57500,NA,NA,"",   10.0220E-03,            0.,       1.57532,   22.0234E-06,   2.30906E+03
C:/ALETube/PressureUpdate/LargeStep/DeformErode/JobErode.odb,Step-1,Increment      5: Step Time =,    50.00,"TUBE-1",         20867,   5.87785E-03,   8.09017E-03,       1.58750,NA,NA,"",   10.0222E-03,            0.,       1.58781,   22.1983E-06,   2.32738E+03
C:/ALETube/PressureUpdate/LargeStep/DeformErode/JobErode.odb,Step-1,Increment      5: Step Time =,    50.00,"TUBE-1",         20833,   7.07107E-03,   7.07107E-03,       1.58750,NA,NA,"",   10.0222E-03,            0.,       1.58781,   22.2083E-06,   2.32927E+03
C:/ALETube/PressureUpdate/LargeStep/DeformErode/JobErode.odb,Step-1,Increment      5: Step Time =,    50.00,"TUBE-1",         21031,   5.87785E-03,   8.09017E-03,       1.60000,NA,NA,"",   10.0224E-03,  -867.362E-21,       1.60030,   22.3733E-06,   2.34570E+03
C:/ALETube/PressureUpdate/LargeStep/DeformErode/JobErode.odb,Step-1,Increment      5: Step Time =,    50.00,"TUBE-1",         20997,   7.07107E-03,   7.07107E-03,       1.60000,NA,NA,"",   10.0224E-03,            0.,       1.60030,   22.3833E-06,   2.34760E+03
C:/ALETube/PressureUpdate/LargeStep/DeformErode/JobErode.odb,Step-1,Increment      5: Step Time =,    50.00,"TUBE-1",         21195,   5.87785E-03,   8.09017E-03,       1.61250,NA,NA,"",   10.0225E-03,            0.,       1.61279,   22.5482E-06,   2.36401E+03
C:/ALETube/PressureUpdate/LargeStep/DeformErode/JobErode.odb,Step-1,Increment      5: Step Time =,    50.00,"TUBE-1",         21161,   7.07107E-03,   7.07107E-03,       1.61250,NA,NA,"",   10.0226E-03,            0.,       1.61279,   22.5583E-06,   2.36593E+03
C:/ALETube/PressureUpdate/LargeStep/DeformErode/JobErode.odb,Step-1,Increment      5: Step Time =,    50.00,"TUBE-1",         21359,   5.87785E-03,   8.09017E-03,         1.625,NA,NA,"",   10.0227E-03,            0.,       1.62528,   22.7232E-06,   2.38233E+03
C:/ALETube/PressureUpdate/LargeStep/DeformErode/JobErode.odb,Step-1,Increment      5: Step Time =,    50.00,"TUBE-1",         21325,   7.07107E-03,   7.07107E-03,         1.625,NA,NA,"",   10.0227E-03,            0.,       1.62528,   22.7334E-06,   2.38426E+03
C:/ALETube/PressureUpdate/LargeStep/DeformErode/JobErode.odb,Step-1,Increment      5: Step Time =,    50.00,"TUBE-1",         21489,   7.07107E-03,   7.07107E-03,       1.63750,NA,NA,"",   10.0229E-03,            0.,       1.63778,   22.9084E-06,   2.40259E+03
C:/ALETube/PressureUpdate/LargeStep/DeformErode/JobErode.odb,Step-1,Increment      5: Step Time =,    50.00,"TUBE-1",         21523,   5.87785E-03,   8.09017E-03,       1.63750,NA,NA,"",   10.0229E-03,  -867.362E-21,       1.63778,   22.8982E-06,   2.40064E+03
C:/ALETube/PressureUpdate/LargeStep/DeformErode/JobErode.odb,Step-1,Increment      5: Step Time =,    50.00,"TUBE-1",         21687,   5.87785E-03,   8.09017E-03,       1.65000,NA,NA,"",   10.0231E-03,            0.,       1.65027,   23.0731E-06,   2.41896E+03
C:/ALETube/PressureUpdate/LargeStep/DeformErode/JobErode.odb,Step-1,Increment      5: Step Time =,    50.00,"TUBE-1",         21653,   7.07107E-03,   7.07107E-03,       1.65000,NA,NA,"",   10.0231E-03,            0.,       1.65027,   23.0835E-06,   2.42092E+03
C:/ALETube/PressureUpdate/LargeStep/DeformErode/JobErode.odb,Step-1,Increment      5: Step Time =,    50.00,"TUBE-1",         21851,   5.87785E-03,   8.09017E-03,       1.66250,NA,NA,"",   10.0232E-03,  -867.362E-21,       1.66276,   23.2481E-06,   2.43727E+03
C:/ALETube/PressureUpdate/LargeStep/DeformErode/JobErode.odb,Step-1,Increment      5: Step Time =,    50.00,"TUBE-1",         21817,   7.07107E-03,   7.07107E-03,       1.66250,NA,NA,"",   10.0233E-03,            0.,       1.66276,   23.2585E-06,   2.43925E+03
C:/ALETube/PressureUpdate/LargeStep/DeformErode/JobErode.odb,Step-1,Increment      5: Step Time =,    50.00,"TUBE-1",         22015,   5.87785E-03,   8.09017E-03,       1.67500,NA,NA,"",   10.0234E-03,   867.362E-21,       1.67525,   23.4231E-06,   2.45559E+03
C:/ALETube/PressureUpdate/LargeStep/DeformErode/JobErode.odb,Step-1,Increment      5: Step Time =,    50.00,"TUBE-1",         21981,   7.07107E-03,   7.07107E-03,       1.67500,NA,NA,"",   10.0234E-03,            0.,       1.67525,   23.4336E-06,   2.45758E+03
C:/ALETube/PressureUpdate/LargeStep/DeformErode/JobErode.odb,Step-1,Increment      5: Step Time =,    50.00,"TUBE-1",         22179,   5.87785E-03,   8.09017E-03,        1.6875,NA,NA,"",   10.0236E-03,            0.,       1.68774,   23.5981E-06,   2.47390E+03
C:/ALETube/PressureUpdate/LargeStep/DeformErode/JobErode.odb,Step-1,Increment      5: Step Time =,    50.00,"TUBE-1",         22145,   7.07107E-03,   7.07107E-03,        1.6875,NA,NA,"",   10.0236E-03,            0.,       1.68774,   23.6087E-06,   2.47591E+03
C:/ALETube/PressureUpdate/LargeStep/DeformErode/JobErode.odb,Step-1,Increment      5: Step Time =,    50.00,"TUBE-1",         22309,   7.07107E-03,   7.07107E-03,       1.70000,NA,NA,"",   10.0238E-03,            0.,       1.70023,   23.7837E-06,   2.49424E+03
C:/ALETube/PressureUpdate/LargeStep/DeformErode/JobErode.odb,Step-1,Increment      5: Step Time =,    50.00,"TUBE-1",         22343,   5.87785E-03,   8.09017E-03,       1.70000,NA,NA,"",   10.0238E-03,            0.,       1.70023,   23.7731E-06,   2.49222E+03
C:/ALETube/PressureUpdate/LargeStep/DeformErode/JobErode.odb,Step-1,Increment      5: Step Time =,    50.00,"TUBE-1",         22507,   5.87785E-03,   8.09017E-03,       1.71250,NA,NA,"",   10.0239E-03,            0.,       1.71272,   23.9481E-06,   2.51053E+03
C:/ALETube/PressureUpdate/LargeStep/DeformErode/JobErode.odb,Step-1,Increment      5: Step Time =,    50.00,"TUBE-1",         22473,   7.07107E-03,   7.07107E-03,       1.71250,NA,NA,"",   10.0240E-03,            0.,       1.71272,   23.9588E-06,   2.51257E+03
C:/ALETube/PressureUpdate/LargeStep/DeformErode/JobErode.odb,Step-1,Increment      5: Step Time =,    50.00,"TUBE-1",         22671,   5.87785E-03,   8.09017E-03,       1.72500,NA,NA,"",   10.0241E-03,   867.362E-21,       1.72521,   24.1229E-06,   2.52884E+03
C:/ALETube/PressureUpdate/LargeStep/DeformErode/JobErode.odb,Step-1,Increment      5: Step Time =,    50.00,"TUBE-1",         22637,   7.07107E-03,   7.07107E-03,       1.72500,NA,NA,"",   10.0241E-03,            0.,       1.72521,   24.1337E-06,   2.53089E+03
C:/ALETube/PressureUpdate/LargeStep/DeformErode/JobErode.odb,Step-1,Increment      5: Step Time =,    50.00,"TUBE-1",         22835,   5.87785E-03,   8.09017E-03,       1.73750,NA,NA,"",   10.0243E-03,            0.,       1.73770,   24.2976E-06,   2.54712E+03
C:/ALETube/PressureUpdate/LargeStep/DeformErode/JobErode.odb,Step-1,Increment      5: Step Time =,    50.00,"TUBE-1",         22801,   7.07107E-03,   7.07107E-03,       1.73750,NA,NA,"",   10.0243E-03,            0.,       1.73770,   24.3085E-06,   2.54918E+03
C:/ALETube/PressureUpdate/LargeStep/DeformErode/JobErode.odb,Step-1,Increment      5: Step Time =,    50.00,"TUBE-1",         22999,   5.87785E-03,   8.09017E-03,          1.75,NA,NA,"",   10.0245E-03,  -867.362E-21,       1.75020,   24.4757E-06,   2.56569E+03
C:/ALETube/PressureUpdate/LargeStep/DeformErode/JobErode.odb,Step-1,Increment      5: Step Time =,    50.00,"TUBE-1",         22965,   7.07107E-03,   7.07107E-03,          1.75,NA,NA,"",   10.0245E-03,            0.,       1.75020,   24.4867E-06,   2.56777E+03
C:/ALETube/PressureUpdate/LargeStep/DeformErode/JobErode.odb,Step-1,Increment      5: Step Time =,    50.00,"TUBE-1",         23129,   7.07107E-03,   7.07107E-03,       1.76250,NA,NA,"",   10.0247E-03,            0.,       1.76269,   24.6538E-06,   2.58519E+03
C:/ALETube/PressureUpdate/LargeStep/DeformErode/JobErode.odb,Step-1,Increment      5: Step Time =,    50.00,"TUBE-1",         23163,   5.87785E-03,   8.09017E-03,       1.76250,NA,NA,"",   10.0246E-03,  -867.362E-21,       1.76269,   24.6428E-06,   2.58309E+03
C:/ALETube/PressureUpdate/LargeStep/DeformErode/JobErode.odb,Step-1,Increment      5: Step Time =,    50.00,"TUBE-1",         23327,   5.87785E-03,   8.09017E-03,       1.77500,NA,NA,"",   10.0248E-03,  -867.362E-21,       1.77518,   24.7820E-06,   2.59800E+03
C:/ALETube/PressureUpdate/LargeStep/DeformErode/JobErode.odb,Step-1,Increment      5: Step Time =,    50.00,"TUBE-1",         23293,   7.07107E-03,   7.07107E-03,       1.77500,NA,NA,"",   10.0248E-03,            0.,       1.77518,   24.7931E-06,   2.60011E+03
C:/ALETube/PressureUpdate/LargeStep/DeformErode/JobErode.odb,Step-1,Increment      5: Step Time =,    50.00,"TUBE-1",         23491,   5.87785E-03,   8.09017E-03,       1.78750,NA,NA,"",   10.0250E-03,            0.,       1.78767,   24.9595E-06,   2.61638E+03
C:/ALETube/PressureUpdate/LargeStep/DeformErode/JobErode.odb,Step-1,Increment      5: Step Time =,    50.00,"TUBE-1",         23457,   7.07107E-03,   7.07107E-03,       1.78750,NA,NA,"",   10.0250E-03,            0.,       1.78767,   24.9707E-06,   2.61851E+03
C:/ALETube/PressureUpdate/LargeStep/DeformErode/JobErode.odb,Step-1,Increment      5: Step Time =,    50.00,"TUBE-1",         23655,   5.87785E-03,   8.09017E-03,       1.80000,NA,NA,"",   10.0251E-03,  -867.362E-21,       1.80016,   25.1368E-06,   2.63493E+03
C:/ALETube/PressureUpdate/LargeStep/DeformErode/JobErode.odb,Step-1,Increment      5: Step Time =,    50.00,"TUBE-1",         23621,   7.07107E-03,   7.07107E-03,       1.80000,NA,NA,"",   10.0251E-03,            0.,       1.80016,   25.1481E-06,   2.63707E+03
C:/ALETube/PressureUpdate/LargeStep/DeformErode/JobErode.odb,Step-1,Increment      5: Step Time =,    50.00,"TUBE-1",         23819,   5.87785E-03,   8.09017E-03,        1.8125,NA,NA,"",   10.0253E-03,   867.362E-21,       1.81265,   25.3109E-06,   2.65315E+03
C:/ALETube/PressureUpdate/LargeStep/DeformErode/JobErode.odb,Step-1,Increment      5: Step Time =,    50.00,"TUBE-1",         23785,   7.07107E-03,   7.07107E-03,        1.8125,NA,NA,"",   10.0253E-03,            0.,       1.81265,   25.3223E-06,   2.65530E+03
C:/ALETube/PressureUpdate/LargeStep/DeformErode/JobErode.odb,Step-1,Increment      5: Step Time =,    50.00,"TUBE-1",         23949,   7.07107E-03,   7.07107E-03,       1.82500,NA,NA,"",   10.0255E-03,            0.,       1.82514,   25.4975E-06,   2.67365E+03
C:/ALETube/PressureUpdate/LargeStep/DeformErode/JobErode.odb,Step-1,Increment      5: Step Time =,    50.00,"TUBE-1",         23983,   5.87785E-03,   8.09017E-03,       1.82500,NA,NA,"",   10.0255E-03,  -867.362E-21,       1.82514,   25.4860E-06,   2.67148E+03
C:/ALETube/PressureUpdate/LargeStep/DeformErode/JobErode.odb,Step-1,Increment      5: Step Time =,    50.00,"TUBE-1",         24147,   5.87785E-03,   8.09017E-03,       1.83750,NA,NA,"",   10.0257E-03,            0.,       1.83763,   25.6611E-06,   2.68979E+03
C:/ALETube/PressureUpdate/LargeStep/DeformErode/JobErode.odb,Step-1,Increment      5: Step Time =,    50.00,"TUBE-1",         24113,   7.07107E-03,   7.07107E-03,       1.83750,NA,NA,"",   10.0257E-03,            0.,       1.83763,   25.6726E-06,   2.69197E+03
C:/ALETube/PressureUpdate/LargeStep/DeformErode/JobErode.odb,Step-1,Increment      5: Step Time =,    50.00,"TUBE-1",         24311,   5.87785E-03,   8.09017E-03,       1.85000,NA,NA,"",   10.0258E-03,            0.,       1.85012,   25.8361E-06,   2.70811E+03
C:/ALETube/PressureUpdate/LargeStep/DeformErode/JobErode.odb,Step-1,Increment      5: Step Time =,    50.00,"TUBE-1",         24277,   7.07107E-03,   7.07107E-03,       1.85000,NA,NA,"",   10.0258E-03,            0.,       1.85012,   25.8477E-06,   2.71030E+03
C:/ALETube/PressureUpdate/LargeStep/DeformErode/JobErode.odb,Step-1,Increment      5: Step Time =,    50.00,"TUBE-1",         24475,   5.87785E-03,   8.09017E-03,       1.86250,NA,NA,"",   10.0260E-03,  -867.362E-21,       1.86261,   26.0111E-06,   2.72642E+03
C:/ALETube/PressureUpdate/LargeStep/DeformErode/JobErode.odb,Step-1,Increment      5: Step Time =,    50.00,"TUBE-1",         24441,   7.07107E-03,   7.07107E-03,       1.86250,NA,NA,"",   10.0260E-03,            0.,       1.86261,   26.0228E-06,   2.72863E+03
C:/ALETube/PressureUpdate/LargeStep/DeformErode/JobErode.odb,Step-1,Increment      5: Step Time =,    50.00,"TUBE-1",         24639,   5.87785E-03,   8.09017E-03,         1.875,NA,NA,"",   10.0262E-03,            0.,       1.87510,   26.1861E-06,   2.74473E+03
C:/ALETube/PressureUpdate/LargeStep/DeformErode/JobErode.odb,Step-1,Increment      5: Step Time =,    50.00,"TUBE-1",         24605,   7.07107E-03,   7.07107E-03,         1.875,NA,NA,"",   10.0262E-03,            0.,       1.87510,   26.1979E-06,   2.74696E+03
C:/ALETube/PressureUpdate/LargeStep/DeformErode/JobErode.odb,Step-1,Increment      5: Step Time =,    50.00,"TUBE-1",         24769,   7.07107E-03,   7.07107E-03,       1.88750,NA,NA,"",   10.0264E-03,            0.,       1.88759,   26.3730E-06,   2.76529E+03
C:/ALETube/PressureUpdate/LargeStep/DeformErode/JobErode.odb,Step-1,Increment      5: Step Time =,    50.00,"TUBE-1",         24803,   5.87785E-03,   8.09017E-03,       1.88750,NA,NA,"",   10.0264E-03,  -867.362E-21,       1.88759,   26.3612E-06,   2.76304E+03
C:/ALETube/PressureUpdate/LargeStep/DeformErode/JobErode.odb,Step-1,Increment      5: Step Time =,    50.00,"TUBE-1",         24967,   5.87785E-03,   8.09017E-03,       1.90000,NA,NA,"",   10.0265E-03,            0.,       1.90008,   26.5362E-06,   2.78136E+03
C:/ALETube/PressureUpdate/LargeStep/DeformErode/JobErode.odb,Step-1,Increment      5: Step Time =,    50.00,"TUBE-1",         24933,   7.07107E-03,   7.07107E-03,       1.90000,NA,NA,"",   10.0265E-03,            0.,       1.90008,   26.5481E-06,   2.78361E+03
C:/ALETube/PressureUpdate/LargeStep/DeformErode/JobErode.odb,Step-1,Increment      5: Step Time =,    50.00,"TUBE-1",         25131,   5.87785E-03,   8.09017E-03,       1.91250,NA,NA,"",   10.0267E-03,            0.,       1.91257,   26.7112E-06,   2.79967E+03
C:/ALETube/PressureUpdate/LargeStep/DeformErode/JobErode.odb,Step-1,Increment      5: Step Time =,    50.00,"TUBE-1",         25097,   7.07107E-03,   7.07107E-03,       1.91250,NA,NA,"",   10.0267E-03,            0.,       1.91257,   26.7232E-06,   2.80194E+03
C:/ALETube/PressureUpdate/LargeStep/DeformErode/JobErode.odb,Step-1,Increment      5: Step Time =,    50.00,"TUBE-1",         25295,   5.87785E-03,   8.09017E-03,       1.92500,NA,NA,"",   10.0269E-03,            0.,       1.92506,   26.8863E-06,   2.81798E+03
C:/ALETube/PressureUpdate/LargeStep/DeformErode/JobErode.odb,Step-1,Increment      5: Step Time =,    50.00,"TUBE-1",         25261,   7.07107E-03,   7.07107E-03,       1.92500,NA,NA,"",   10.0269E-03,            0.,       1.92506,   26.8983E-06,   2.82027E+03
C:/ALETube/PressureUpdate/LargeStep/DeformErode/JobErode.odb,Step-1,Increment      5: Step Time =,    50.00,"TUBE-1",         25459,   5.87785E-03,   8.09017E-03,        1.9375,NA,NA,"",   10.0271E-03,            0.,       1.93755,   27.0612E-06,   2.83629E+03
C:/ALETube/PressureUpdate/LargeStep/DeformErode/JobErode.odb,Step-1,Increment      5: Step Time =,    50.00,"TUBE-1",         25425,   7.07107E-03,   7.07107E-03,        1.9375,NA,NA,"",   10.0271E-03,            0.,       1.93755,   27.0733E-06,   2.83859E+03
C:/ALETube/PressureUpdate/LargeStep/DeformErode/JobErode.odb,Step-1,Increment      5: Step Time =,    50.00,"TUBE-1",         25589,   7.07107E-03,   7.07107E-03,       1.95000,NA,NA,"",   10.0272E-03,            0.,       1.95004,   27.2489E-06,   2.85694E+03
C:/ALETube/PressureUpdate/LargeStep/DeformErode/JobErode.odb,Step-1,Increment      5: Step Time =,    50.00,"TUBE-1",         25623,   5.87785E-03,   8.09017E-03,       1.95000,NA,NA,"",   10.0272E-03,   867.362E-21,       1.95004,   27.2367E-06,   2.85462E+03
C:/ALETube/PressureUpdate/LargeStep/DeformErode/JobErode.odb,Step-1,Increment      5: Step Time =,    50.00,"TUBE-1",         25787,   5.87785E-03,   8.09017E-03,       1.96250,NA,NA,"",   10.0274E-03,            0.,       1.96253,   27.4106E-06,   2.87288E+03
C:/ALETube/PressureUpdate/LargeStep/DeformErode/JobErode.odb,Step-1,Increment      5: Step Time =,    50.00,"TUBE-1",         25753,   7.07107E-03,   7.07107E-03,       1.96250,NA,NA,"",   10.0274E-03,            0.,       1.96253,   27.4229E-06,   2.87520E+03
C:/ALETube/PressureUpdate/LargeStep/DeformErode/JobErode.odb,Step-1,Increment      5: Step Time =,    50.00,"TUBE-1",         25951,   5.87785E-03,   8.09017E-03,       1.97500,NA,NA,"",   10.0276E-03,            0.,       1.97502,   27.5843E-06,   2.89098E+03
C:/ALETube/PressureUpdate/LargeStep/DeformErode/JobErode.odb,Step-1,Increment      5: Step Time =,    50.00,"TUBE-1",         25917,   7.07107E-03,   7.07107E-03,       1.97500,NA,NA,"",   10.0276E-03,            0.,       1.97502,   27.5966E-06,   2.89334E+03
C:/ALETube/PressureUpdate/LargeStep/DeformErode/JobErode.odb,Step-1,Increment      5: Step Time =,    50.00,"TUBE-1",         26115,   5.87785E-03,   8.09017E-03,       1.98750,NA,NA,"",   10.0278E-03,   867.362E-21,       1.98751,   27.7762E-06,   2.91068E+03
C:/ALETube/PressureUpdate/LargeStep/DeformErode/JobErode.odb,Step-1,Increment      5: Step Time =,    50.00,"TUBE-1",         26081,   7.07107E-03,   7.07107E-03,       1.98750,NA,NA,"",   10.0278E-03,            0.,       1.98751,   27.7892E-06,   2.91309E+03
C:/ALETube/PressureUpdate/LargeStep/DeformErode/JobErode.odb,Step-1,Increment      5: Step Time =,    50.00,"TUBE-1",         26279,   5.87785E-03,   8.09017E-03,            2.,NA,NA,"",   10.0279E-03,            0.,            2.,   27.9000E-06,   2.92019E+03
C:/ALETube/PressureUpdate/LargeStep/DeformErode/JobErode.odb,Step-1,Increment      5: Step Time =,    50.00,"TUBE-1",         26245,   7.07107E-03,   7.07107E-03,            2.,NA,NA,"",   10.0279E-03,            0.,            2.,   27.9106E-06,   2.92417E+03
C:/ALETube/PressureUpdate/LargeStep/DeformErode/JobErode.odb,Step-1,Increment      6: Step Time =,    60.00,"TUBE-1",            39,   5.87785E-03,   8.09017E-03,            0.,NA,NA,"",   9.99992E-03,  -867.362E-21,   1.10690E-03,  -78.9022E-09,       5.17397
C:/ALETube/PressureUpdate/LargeStep/DeformErode/JobErode.odb,Step-1,Increment      6: Step Time =,    60.00,"TUBE-1",             5,   7.07107E-03,   7.07107E-03,            0.,NA,NA,"",   9.99992E-03,            0.,   1.10690E-03,  -78.6440E-09,       5.17378
C:/ALETube/PressureUpdate/LargeStep/DeformErode/JobErode.odb,Step-1,Increment      6: Step Time =,    60.00,"TUBE-1",           203,   5.87785E-03,   8.09017E-03,   12.5000E-03,NA,NA,"",   10.0003E-03,  -867.362E-21,   13.6098E-03,   251.180E-09,       24.8734
C:/ALETube/PressureUpdate/LargeStep/DeformErode/JobErode.odb,Step-1,Increment      6: Step Time =,    60.00,"TUBE-1",           169,   7.07107E-03,   7.07107E-03,   12.5000E-03,NA,NA,"",   10.0003E-03,            0.,   13.6085E-03,   251.369E-09,       24.8978
C:/ALETube/PressureUpdate/LargeStep/DeformErode/JobErode.odb,Step-1,Increment      6: Step Time =,    60.00,"TUBE-1",           333,   7.07107E-03,   7.07107E-03,   25.0000E-03,NA,NA,"",   10.0005E-03,            0.,   26.1068E-03,   458.872E-09,       48.9823
C:/ALETube/PressureUpdate/LargeStep/DeformErode/JobErode.odb,Step-1,Increment      6: Step Time =,    60.00,"TUBE-1",           367,   5.87785E-03,   8.09017E-03,   25.0000E-03,NA,NA,"",   10.0005E-03,  -867.362E-21,   26.1069E-03,   458.495E-09,       48.9301
C:/ALETube/PressureUpdate/LargeStep/DeformErode/JobErode.odb,Step-1,Increment      6: Step Time =,    60.00,"TUBE-1",           531,   5.87785E-03,   8.09017E-03,   37.5000E-03,NA,NA,"",   10.0007E-03,            0.,   38.6065E-03,   693.323E-09,       72.5473
C:/ALETube/PressureUpdate/LargeStep/DeformErode/JobErode.odb,Step-1,Increment      6: Step Time =,    60.00,"TUBE-1",           497,   7.07107E-03,   7.07107E-03,   37.5000E-03,NA,NA,"",   10.0007E-03,            0.,   38.6065E-03,   693.896E-09,       72.6283
C:/ALETube/PressureUpdate/LargeStep/DeformErode/JobErode.odb,Step-1,Increment      6: Step Time =,    60.00,"TUBE-1",           695,   5.87785E-03,   8.09017E-03,   50.0000E-03,NA,NA,"",   10.0009E-03,            0.,   51.1062E-03,   923.979E-09,       97.2019
C:/ALETube/PressureUpdate/LargeStep/DeformErode/JobErode.odb,Step-1,Increment      6: Step Time =,    60.00,"TUBE-1",           661,   7.07107E-03,   7.07107E-03,   50.0000E-03,NA,NA,"",   10.0009E-03,            0.,   51.1062E-03,   924.744E-09,       97.3091
C:/ALETube/PressureUpdate/LargeStep/DeformErode/JobErode.odb,Step-1,Increment      6: Step Time =,    60.00,"TUBE-1",           825,   7.07107E-03,   7.07107E-03,      62.5E-03,NA,NA,"",   10.0012E-03,            0.,   63.6058E-03,   1.15719E-06,       121.489
C:/ALETube/PressureUpdate/LargeStep/DeformErode/JobErode.odb,Step-1,Increment      6: Step Time =,    60.00,"TUBE-1",           859,   5.87785E-03,   8.09017E-03,      62.5E-03,NA,NA,"",   10.0012E-03,  -867.362E-21,   63.6058E-03,   1.15623E-06,       121.354
C:/ALETube/PressureUpdate/LargeStep/DeformErode/JobErode.odb,Step-1,Increment      6: Step Time =,    60.00,"TUBE-1",          1023,   5.87785E-03,   8.09017E-03,   75.0000E-03,NA,NA,"",   10.0014E-03,  -867.362E-21,   76.1054E-03,   1.38719E-06,       145.707
C:/ALETube/PressureUpdate/LargeStep/DeformErode/JobErode.odb,Step-1,Increment      6: Step Time =,    60.00,"TUBE-1",           989,   7.07107E-03,   7.07107E-03,   75.0000E-03,NA,NA,"",   10.0014E-03,            0.,   76.1054E-03,   1.38834E-06,       145.868
C:/ALETube/PressureUpdate/LargeStep/DeformErode/JobErode.odb,Step-1,Increment      6: Step Time =,    60.00,"TUBE-1",          1187,   5.87785E-03,   8.09017E-03,   87.5000E-03,NA,NA,"",   10.0016E-03,            0.,   88.6048E-03,   1.61893E-06,       169.980
C:/ALETube/PressureUpdate/LargeStep/DeformErode/JobErode.odb,Step-1,Increment      6: Step Time =,    60.00,"TUBE-1",          1153,   7.07107E-03,   7.07107E-03,   87.5000E-03,NA,NA,"",   10.0016E-03,            0.,   88.6048E-03,   1.62027E-06,       170.168
C:/ALETube/PressureUpdate/LargeStep/DeformErode/JobErode.odb,Step-1,Increment      6: Step Time =,    60.00,"TUBE-1",          1351,   5.87785E-03,   8.09017E-03,   100.000E-03,NA,NA,"",   10.0019E-03,            0.,   101.104E-03,   1.85030E-06,       194.290
C:/ALETube/PressureUpdate/LargeStep/DeformErode/JobErode.odb,Step-1,Increment      6: Step Time =,    60.00,"TUBE-1",          1317,   7.07107E-03,   7.07107E-03,   100.000E-03,NA,NA,"",   10.0019E-03,            0.,   101.104E-03,   1.85182E-06,       194.505
C:/ALETube/PressureUpdate/LargeStep/DeformErode/JobErode.odb,Step-1,Increment      6: Step Time =,    60.00,"TUBE-1",          1515,   5.87785E-03,   8.09017E-03,   112.500E-03,NA,NA,"",   10.0021E-03,            0.,   113.603E-03,   2.08182E-06,       218.581
C:/ALETube/PressureUpdate/LargeStep/DeformErode/JobErode.odb,Step-1,Increment      6: Step Time =,    60.00,"TUBE-1",          1481,   7.07107E-03,   7.07107E-03,   112.500E-03,NA,NA,"",   10.0021E-03,            0.,   113.603E-03,   2.08354E-06,       218.823
C:/ALETube/PressureUpdate/LargeStep/DeformErode/JobErode.odb,Step-1,Increment      6: Step Time =,    60.00,"TUBE-1",          1645,   7.07107E-03,   7.07107E-03,      125.E-03,NA,NA,"",   10.0023E-03,            0.,   126.103E-03,   2.31518E-06,       243.149
C:/ALETube/PressureUpdate/LargeStep/DeformErode/JobErode.odb,Step-1,Increment      6: Step Time =,    60.00,"TUBE-1",          1679,   5.87785E-03,   8.09017E-03,      125.E-03,NA,NA,"",   10.0023E-03,            0.,   126.103E-03,   2.31327E-06,       242.881
C:/ALETube/PressureUpdate/LargeStep/DeformErode/JobErode.odb,Step-1,Increment      6: Step Time =,    60.00,"TUBE-1",          1843,   5.87785E-03,   8.09017E-03,   137.500E-03,NA,NA,"",   10.0025E-03,            0.,   138.602E-03,   2.54476E-06,       267.176
C:/ALETube/PressureUpdate/LargeStep/DeformErode/JobErode.odb,Step-1,Increment      6: Step Time =,    60.00,"TUBE-1",          1809,   7.07107E-03,   7.07107E-03,   137.500E-03,NA,NA,"",   10.0025E-03,            0.,   138.602E-03,   2.54685E-06,       267.471
C:/ALETube/PressureUpdate/LargeStep/DeformErode/JobErode.odb,Step-1,Increment      6: Step Time =,    60.00,"TUBE-1",          2007,   5.87785E-03,   8.09017E-03,   150.000E-03,NA,NA,"",   10.0028E-03,            0.,   151.101E-03,   2.77622E-06,       291.472
C:/ALETube/PressureUpdate/LargeStep/DeformErode/JobErode.odb,Step-1,Increment      6: Step Time =,    60.00,"TUBE-1",          1973,   7.07107E-03,   7.07107E-03,   150.000E-03,NA,NA,"",   10.0028E-03,            0.,   151.101E-03,   2.77851E-06,       291.794
C:/ALETube/PressureUpdate/LargeStep/DeformErode/JobErode.odb,Step-1,Increment      6: Step Time =,    60.00,"TUBE-1",          2171,   5.87785E-03,   8.09017E-03,   162.500E-03,NA,NA,"",   10.0030E-03,  -867.362E-21,   163.600E-03,   3.00769E-06,       315.766
C:/ALETube/PressureUpdate/LargeStep/DeformErode/JobErode.odb,Step-1,Increment      6: Step Time =,    60.00,"TUBE-1",          2137,   7.07107E-03,   7.07107E-03,   162.500E-03,NA,NA,"",   10.0030E-03,            0.,   163.600E-03,   3.01017E-06,       316.115
C:/ALETube/PressureUpdate/LargeStep/DeformErode/JobErode.odb,Step-1,Increment      6: Step Time =,    60.00,"TUBE-1",          2335,   5.87785E-03,   8.09017E-03,   175.000E-03,NA,NA,"",   10.0032E-03,            0.,   176.098E-03,   3.23916E-06,       340.060
C:/ALETube/PressureUpdate/LargeStep/DeformErode/JobErode.odb,Step-1,Increment      6: Step Time =,    60.00,"TUBE-1",          2301,   7.07107E-03,   7.07107E-03,   175.000E-03,NA,NA,"",   10.0032E-03,            0.,   176.098E-03,   3.24183E-06,       340.436
C:/ALETube/PressureUpdate/LargeStep/DeformErode/JobErode.odb,Step-1,Increment      6: Step Time =,    60.00,"TUBE-1",          2465,   7.07107E-03,   7.07107E-03,     187.5E-03,NA,NA,"",   10.0035E-03,            0.,   188.597E-03,   3.47349E-06,       364.756
C:/ALETube/PressureUpdate/LargeStep/DeformErode/JobErode.odb,Step-1,Increment      6: Step Time =,    60.00,"TUBE-1",          2499,   5.87785E-03,   8.09017E-03,     187.5E-03,NA,NA,"",   10.0035E-03,            0.,   188.597E-03,   3.47063E-06,       364.353
C:/ALETube/PressureUpdate/LargeStep/DeformErode/JobErode.odb,Step-1,Increment      6: Step Time =,    60.00,"TUBE-1",          2663,   5.87785E-03,   8.09017E-03,   200.000E-03,NA,NA,"",   10.0037E-03,            0.,   201.096E-03,   3.70209E-06,       388.645
C:/ALETube/PressureUpdate/LargeStep/DeformErode/JobErode.odb,Step-1,Increment      6: Step Time =,    60.00,"TUBE-1",          2629,   7.07107E-03,   7.07107E-03,   200.000E-03,NA,NA,"",   10.0037E-03,            0.,   201.096E-03,   3.70514E-06,       389.075
C:/ALETube/PressureUpdate/LargeStep/DeformErode/JobErode.odb,Step-1,Increment      6: Step Time =,    60.00,"TUBE-1",          2827,   5.87785E-03,   8.09017E-03,   212.500E-03,NA,NA,"",   10.0039E-03,            0.,   213.594E-03,   3.93355E-06,       412.937
C:/ALETube/PressureUpdate/LargeStep/DeformErode/JobErode.odb,Step-1,Increment      6: Step Time =,    60.00,"TUBE-1",          2793,   7.07107E-03,   7.07107E-03,   212.500E-03,NA,NA,"",   10.0039E-03,            0.,   213.594E-03,   3.93680E-06,       413.393
C:/ALETube/PressureUpdate/LargeStep/DeformErode/JobErode.odb,Step-1,Increment      6: Step Time =,    60.00,"TUBE-1",          2991,   5.87785E-03,   8.09017E-03,   225.000E-03,NA,NA,"",   10.0042E-03,  -867.362E-21,   226.093E-03,   4.16501E-06,       437.227
C:/ALETube/PressureUpdate/LargeStep/DeformErode/JobErode.odb,Step-1,Increment      6: Step Time =,    60.00,"TUBE-1",          2957,   7.07107E-03,   7.07107E-03,   225.000E-03,NA,NA,"",   10.0042E-03,            0.,   226.093E-03,   4.16845E-06,       437.710
C:/ALETube/PressureUpdate/LargeStep/DeformErode/JobErode.odb,Step-1,Increment      6: Step Time =,    60.00,"TUBE-1",          3155,   5.87785E-03,   8.09017E-03,   237.500E-03,NA,NA,"",   10.0044E-03,  -867.362E-21,   238.591E-03,   4.39647E-06,       461.516
C:/ALETube/PressureUpdate/LargeStep/DeformErode/JobErode.odb,Step-1,Increment      6: Step Time =,    60.00,"TUBE-1",          3121,   7.07107E-03,   7.07107E-03,   237.500E-03,NA,NA,"",   10.0044E-03,            0.,   238.591E-03,   4.40010E-06,       462.026
C:/ALETube/PressureUpdate/LargeStep/DeformErode/JobErode.odb,Step-1,Increment      6: Step Time =,    60.00,"TUBE-1",          3285,   7.07107E-03,   7.07107E-03,      250.E-03,NA,NA,"",   10.0046E-03,            0.,   251.089E-03,   4.63174E-06,       486.342
C:/ALETube/PressureUpdate/LargeStep/DeformErode/JobErode.odb,Step-1,Increment      6: Step Time =,    60.00,"TUBE-1",          3319,   5.87785E-03,   8.09017E-03,      250.E-03,NA,NA,"",   10.0046E-03,            0.,   251.089E-03,   4.62793E-06,       485.805
C:/ALETube/PressureUpdate/LargeStep/DeformErode/JobErode.odb,Step-1,Increment      6: Step Time =,    60.00,"TUBE-1",          3483,   5.87785E-03,   8.09017E-03,   262.500E-03,NA,NA,"",   10.0049E-03,            0.,   263.588E-03,   4.85939E-06,       510.093
C:/ALETube/PressureUpdate/LargeStep/DeformErode/JobErode.odb,Step-1,Increment      6: Step Time =,    60.00,"TUBE-1",          3449,   7.07107E-03,   7.07107E-03,   262.500E-03,NA,NA,"",   10.0049E-03,            0.,   263.588E-03,   4.86339E-06,       510.656
C:/ALETube/PressureUpdate/LargeStep/DeformErode/JobErode.odb,Step-1,Increment      6: Step Time =,    60.00,"TUBE-1",          3647,   5.87785E-03,   8.09017E-03,   275.000E-03,NA,NA,"",   10.0051E-03,            0.,   276.086E-03,   5.09084E-06,       534.379
C:/ALETube/PressureUpdate/LargeStep/DeformErode/JobErode.odb,Step-1,Increment      6: Step Time =,    60.00,"TUBE-1",          3613,   7.07107E-03,   7.07107E-03,   275.000E-03,NA,NA,"",   10.0051E-03,            0.,   276.086E-03,   5.09504E-06,       534.970
C:/ALETube/PressureUpdate/LargeStep/DeformErode/JobErode.odb,Step-1,Increment      6: Step Time =,    60.00,"TUBE-1",          3811,   5.87785E-03,   8.09017E-03,   287.500E-03,NA,NA,"",   10.0053E-03,            0.,   288.584E-03,   5.32229E-06,       558.665
C:/ALETube/PressureUpdate/LargeStep/DeformErode/JobErode.odb,Step-1,Increment      6: Step Time =,    60.00,"TUBE-1",          3777,   7.07107E-03,   7.07107E-03,   287.500E-03,NA,NA,"",   10.0053E-03,            0.,   288.584E-03,   5.32668E-06,       559.282
C:/ALETube/PressureUpdate/LargeStep/DeformErode/JobErode.odb,Step-1,Increment      6: Step Time =,    60.00,"TUBE-1",          3975,   5.87785E-03,   8.09017E-03,   300.000E-03,NA,NA,"",   10.0056E-03,            0.,   301.082E-03,   5.55375E-06,       582.950
C:/ALETube/PressureUpdate/LargeStep/DeformErode/JobErode.odb,Step-1,Increment      6: Step Time =,    60.00,"TUBE-1",          3941,   7.07107E-03,   7.07107E-03,   300.000E-03,NA,NA,"",   10.0056E-03,            0.,   301.082E-03,   5.55832E-06,       583.594
C:/ALETube/PressureUpdate/LargeStep/DeformErode/JobErode.odb,Step-1,Increment      6: Step Time =,    60.00,"TUBE-1",          4105,   7.07107E-03,   7.07107E-03,     312.5E-03,NA,NA,"",   10.0058E-03,            0.,   313.580E-03,   5.78996E-06,       607.905
C:/ALETube/PressureUpdate/LargeStep/DeformErode/JobErode.odb,Step-1,Increment      6: Step Time =,    60.00,"TUBE-1",          4139,   5.87785E-03,   8.09017E-03,     312.5E-03,NA,NA,"",   10.0058E-03,            0.,   313.580E-03,   5.78520E-06,       607.234
C:/ALETube/PressureUpdate/LargeStep/DeformErode/JobErode.odb,Step-1,Increment      6: Step Time =,    60.00,"TUBE-1",          4303,   5.87785E-03,   8.09017E-03,   325.000E-03,NA,NA,"",   10.0060E-03,            0.,   326.077E-03,   6.01664E-06,       631.517
C:/ALETube/PressureUpdate/LargeStep/DeformErode/JobErode.odb,Step-1,Increment      6: Step Time =,    60.00,"TUBE-1",          4269,   7.07107E-03,   7.07107E-03,   325.000E-03,NA,NA,"",   10.0060E-03,            0.,   326.077E-03,   6.02160E-06,       632.215
C:/ALETube/PressureUpdate/LargeStep/DeformErode/JobErode.odb,Step-1,Increment      6: Step Time =,    60.00,"TUBE-1",          4467,   5.87785E-03,   8.09017E-03,   337.500E-03,NA,NA,"",   10.0062E-03,            0.,   338.575E-03,   6.24809E-06,       655.800
C:/ALETube/PressureUpdate/LargeStep/DeformErode/JobErode.odb,Step-1,Increment      6: Step Time =,    60.00,"TUBE-1",          4433,   7.07107E-03,   7.07107E-03,   337.500E-03,NA,NA,"",   10.0063E-03,            0.,   338.575E-03,   6.25323E-06,       656.524
C:/ALETube/PressureUpdate/LargeStep/DeformErode/JobErode.odb,Step-1,Increment      6: Step Time =,    60.00,"TUBE-1",          4631,   5.87785E-03,   8.09017E-03,   350.000E-03,NA,NA,"",   10.0065E-03,            0.,   351.073E-03,   6.47953E-06,       680.081
C:/ALETube/PressureUpdate/LargeStep/DeformErode/JobErode.odb,Step-1,Increment      6: Step Time =,    60.00,"TUBE-1",          4597,   7.07107E-03,   7.07107E-03,   350.000E-03,NA,NA,"",   10.0065E-03,            0.,   351.073E-03,   6.48487E-06,       680.832
C:/ALETube/PressureUpdate/LargeStep/DeformErode/JobErode.odb,Step-1,Increment      6: Step Time =,    60.00,"TUBE-1",          4795,   5.87785E-03,   8.09017E-03,   362.500E-03,NA,NA,"",   10.0067E-03,  -867.362E-21,   363.570E-03,   6.71098E-06,       704.361
C:/ALETube/PressureUpdate/LargeStep/DeformErode/JobErode.odb,Step-1,Increment      6: Step Time =,    60.00,"TUBE-1",          4761,   7.07107E-03,   7.07107E-03,   362.500E-03,NA,NA,"",   10.0067E-03,            0.,   363.570E-03,   6.71650E-06,       705.139
C:/ALETube/PressureUpdate/LargeStep/DeformErode/JobErode.odb,Step-1,Increment      6: Step Time =,    60.00,"TUBE-1",          4925,   7.07107E-03,   7.07107E-03,      375.E-03,NA,NA,"",   10.0069E-03,            0.,   376.068E-03,   6.94813E-06,       729.445
C:/ALETube/PressureUpdate/LargeStep/DeformErode/JobErode.odb,Step-1,Increment      6: Step Time =,    60.00,"TUBE-1",          4959,   5.87785E-03,   8.09017E-03,      375.E-03,NA,NA,"",   10.0069E-03,  -867.362E-21,   376.068E-03,   6.94242E-06,       728.641
C:/ALETube/PressureUpdate/LargeStep/DeformErode/JobErode.odb,Step-1,Increment      6: Step Time =,    60.00,"TUBE-1",          5123,   5.87785E-03,   8.09017E-03,   387.500E-03,NA,NA,"",   10.0072E-03,            0.,   388.565E-03,   7.17386E-06,       752.919
C:/ALETube/PressureUpdate/LargeStep/DeformErode/JobErode.odb,Step-1,Increment      6: Step Time =,    60.00,"TUBE-1",          5089,   7.07107E-03,   7.07107E-03,   387.500E-03,NA,NA,"",   10.0072E-03,            0.,   388.565E-03,   7.17976E-06,       753.750
C:/ALETube/PressureUpdate/LargeStep/DeformErode/JobErode.odb,Step-1,Increment      6: Step Time =,    60.00,"TUBE-1",          5287,   5.87785E-03,   8.09017E-03,   400.000E-03,NA,NA,"",   10.0074E-03,            0.,   401.062E-03,   7.40530E-06,       777.197
C:/ALETube/PressureUpdate/LargeStep/DeformErode/JobErode.odb,Step-1,Increment      6: Step Time =,    60.00,"TUBE-1",          5253,   7.07107E-03,   7.07107E-03,   400.000E-03,NA,NA,"",   10.0074E-03,            0.,   401.062E-03,   7.41139E-06,       778.055
C:/ALETube/PressureUpdate/LargeStep/DeformErode/JobErode.odb,Step-1,Increment      6: Step Time =,    60.00,"TUBE-1",          5451,   5.87785E-03,   8.09017E-03,   412.500E-03,NA,NA,"",   10.0076E-03,   867.362E-21,   413.559E-03,   7.63673E-06,       801.473
C:/ALETube/PressureUpdate/LargeStep/DeformErode/JobErode.odb,Step-1,Increment      6: Step Time =,    60.00,"TUBE-1",          5417,   7.07107E-03,   7.07107E-03,   412.500E-03,NA,NA,"",   10.0076E-03,            0.,   413.559E-03,   7.64302E-06,       802.358
C:/ALETube/PressureUpdate/LargeStep/DeformErode/JobErode.odb,Step-1,Increment      6: Step Time =,    60.00,"TUBE-1",          5615,   5.87785E-03,   8.09017E-03,   425.000E-03,NA,NA,"",   10.0079E-03,            0.,   426.057E-03,   7.86817E-06,       825.749
C:/ALETube/PressureUpdate/LargeStep/DeformErode/JobErode.odb,Step-1,Increment      6: Step Time =,    60.00,"TUBE-1",          5581,   7.07107E-03,   7.07107E-03,   425.000E-03,NA,NA,"",   10.0079E-03,            0.,   426.057E-03,   7.87464E-06,       826.661
C:/ALETube/PressureUpdate/LargeStep/DeformErode/JobErode.odb,Step-1,Increment      6: Step Time =,    60.00,"TUBE-1",          5745,   7.07107E-03,   7.07107E-03,     437.5E-03,NA,NA,"",   10.0081E-03,            0.,   438.554E-03,   8.10626E-06,       850.962
C:/ALETube/PressureUpdate/LargeStep/DeformErode/JobErode.odb,Step-1,Increment      6: Step Time =,    60.00,"TUBE-1",          5779,   5.87785E-03,   8.09017E-03,     437.5E-03,NA,NA,"",   10.0081E-03,  -867.362E-21,   438.554E-03,   8.09960E-06,       850.024
C:/ALETube/PressureUpdate/LargeStep/DeformErode/JobErode.odb,Step-1,Increment      6: Step Time =,    60.00,"TUBE-1",          5943,   5.87785E-03,   8.09017E-03,   450.000E-03,NA,NA,"",   10.0083E-03,            0.,   451.050E-03,   8.33103E-06,       874.297
C:/ALETube/PressureUpdate/LargeStep/DeformErode/JobErode.odb,Step-1,Increment      6: Step Time =,    60.00,"TUBE-1",          5909,   7.07107E-03,   7.07107E-03,   450.000E-03,NA,NA,"",   10.0083E-03,            0.,   451.050E-03,   8.33788E-06,       875.263
C:/ALETube/PressureUpdate/LargeStep/DeformErode/JobErode.odb,Step-1,Increment      6: Step Time =,    60.00,"TUBE-1",          6107,   5.87785E-03,   8.09017E-03,   462.500E-03,NA,NA,"",   10.0086E-03,            0.,   463.547E-03,   8.56246E-06,       898.570
C:/ALETube/PressureUpdate/LargeStep/DeformErode/JobErode.odb,Step-1,Increment      6: Step Time =,    60.00,"TUBE-1",          6073,   7.07107E-03,   7.07107E-03,   462.500E-03,NA,NA,"",   10.0086E-03,            0.,   463.547E-03,   8.56950E-06,       899.562
C:/ALETube/PressureUpdate/LargeStep/DeformErode/JobErode.odb,Step-1,Increment      6: Step Time =,    60.00,"TUBE-1",          6271,   5.87785E-03,   8.09017E-03,   475.000E-03,NA,NA,"",   10.0088E-03,  -867.362E-21,   476.044E-03,   8.79389E-06,       922.842
C:/ALETube/PressureUpdate/LargeStep/DeformErode/JobErode.odb,Step-1,Increment      6: Step Time =,    60.00,"TUBE-1",          6237,   7.07107E-03,   7.07107E-03,   475.000E-03,NA,NA,"",   10.0088E-03,            0.,   476.044E-03,   8.80112E-06,       923.861
C:/ALETube/PressureUpdate/LargeStep/DeformErode/JobErode.odb,Step-1,Increment      6: Step Time =,    60.00,"TUBE-1",          6435,   5.87785E-03,   8.09017E-03,   487.500E-03,NA,NA,"",   10.0090E-03,  -867.362E-21,   488.541E-03,   9.02531E-06,       947.113
C:/ALETube/PressureUpdate/LargeStep/DeformErode/JobErode.odb,Step-1,Increment      6: Step Time =,    60.00,"TUBE-1",          6401,   7.07107E-03,   7.07107E-03,   487.500E-03,NA,NA,"",   10.0090E-03,            0.,   488.541E-03,   9.03273E-06,       948.158
C:/ALETube/PressureUpdate/LargeStep/DeformErode/JobErode.odb,Step-1,Increment      6: Step Time =,    60.00,"TUBE-1",          6565,   7.07107E-03,   7.07107E-03,      500.E-03,NA,NA,"",   10.0093E-03,            0.,   501.037E-03,   9.26435E-06,       972.455
C:/ALETube/PressureUpdate/LargeStep/DeformErode/JobErode.odb,Step-1,Increment      6: Step Time =,    60.00,"TUBE-1",          6599,   5.87785E-03,   8.09017E-03,      500.E-03,NA,NA,"",   10.0093E-03,            0.,   501.037E-03,   9.25674E-06,       971.383
C:/ALETube/PressureUpdate/LargeStep/DeformErode/JobErode.odb,Step-1,Increment      6: Step Time =,    60.00,"TUBE-1",          6763,   5.87785E-03,   8.09017E-03,   512.500E-03,NA,NA,"",   10.0095E-03,            0.,   513.534E-03,   9.48816E-06,       995.652
C:/ALETube/PressureUpdate/LargeStep/DeformErode/JobErode.odb,Step-1,Increment      6: Step Time =,    60.00,"TUBE-1",          6729,   7.07107E-03,   7.07107E-03,   512.500E-03,NA,NA,"",   10.0095E-03,            0.,   513.534E-03,   9.49596E-06,       996.751
C:/ALETube/PressureUpdate/LargeStep/DeformErode/JobErode.odb,Step-1,Increment      6: Step Time =,    60.00,"TUBE-1",          6927,   5.87785E-03,   8.09017E-03,   525.000E-03,NA,NA,"",   10.0097E-03,            0.,   526.030E-03,   9.71958E-06,   1.01992E+03
C:/ALETube/PressureUpdate/LargeStep/DeformErode/JobErode.odb,Step-1,Increment      6: Step Time =,    60.00,"TUBE-1",          6893,   7.07107E-03,   7.07107E-03,   525.000E-03,NA,NA,"",   10.0097E-03,            0.,   526.030E-03,   9.72757E-06,   1.02105E+03
C:/ALETube/PressureUpdate/LargeStep/DeformErode/JobErode.odb,Step-1,Increment      6: Step Time =,    60.00,"TUBE-1",          7091,   5.87785E-03,   8.09017E-03,   537.500E-03,NA,NA,"",   10.0100E-03,            0.,   538.526E-03,   9.95100E-06,   1.04419E+03
C:/ALETube/PressureUpdate/LargeStep/DeformErode/JobErode.odb,Step-1,Increment      6: Step Time =,    60.00,"TUBE-1",          7057,   7.07107E-03,   7.07107E-03,   537.500E-03,NA,NA,"",   10.0100E-03,            0.,   538.526E-03,   9.95918E-06,   1.04534E+03
C:/ALETube/PressureUpdate/LargeStep/DeformErode/JobErode.odb,Step-1,Increment      6: Step Time =,    60.00,"TUBE-1",          7255,   5.87785E-03,   8.09017E-03,   550.000E-03,NA,NA,"",   10.0102E-03,            0.,   551.023E-03,   10.1824E-06,   1.06845E+03
C:/ALETube/PressureUpdate/LargeStep/DeformErode/JobErode.odb,Step-1,Increment      6: Step Time =,    60.00,"TUBE-1",          7221,   7.07107E-03,   7.07107E-03,   550.000E-03,NA,NA,"",   10.0102E-03,            0.,   551.023E-03,   10.1908E-06,   1.06963E+03
C:/ALETube/PressureUpdate/LargeStep/DeformErode/JobErode.odb,Step-1,Increment      6: Step Time =,    60.00,"TUBE-1",          7385,   7.07107E-03,   7.07107E-03,     562.5E-03,NA,NA,"",   10.0104E-03,            0.,   563.519E-03,   10.4224E-06,   1.09393E+03
C:/ALETube/PressureUpdate/LargeStep/DeformErode/JobErode.odb,Step-1,Increment      6: Step Time =,    60.00,"TUBE-1",          7419,   5.87785E-03,   8.09017E-03,     562.5E-03,NA,NA,"",   10.0104E-03,  -867.362E-21,   563.519E-03,   10.4138E-06,   1.09272E+03
C:/ALETube/PressureUpdate/LargeStep/DeformErode/JobErode.odb,Step-1,Increment      6: Step Time =,    60.00,"TUBE-1",          7583,   5.87785E-03,   8.09017E-03,   575.000E-03,NA,NA,"",   10.0106E-03,            0.,   576.015E-03,   10.6453E-06,   1.11698E+03
C:/ALETube/PressureUpdate/LargeStep/DeformErode/JobErode.odb,Step-1,Increment      6: Step Time =,    60.00,"TUBE-1",          7549,   7.07107E-03,   7.07107E-03,   575.000E-03,NA,NA,"",   10.0107E-03,            0.,   576.015E-03,   10.6540E-06,   1.11822E+03
C:/ALETube/PressureUpdate/LargeStep/DeformErode/JobErode.odb,Step-1,Increment      6: Step Time =,    60.00,"TUBE-1",          7747,   5.87785E-03,   8.09017E-03,   587.500E-03,NA,NA,"",   10.0109E-03,            0.,   588.511E-03,   10.8767E-06,   1.14125E+03
C:/ALETube/PressureUpdate/LargeStep/DeformErode/JobErode.odb,Step-1,Increment      6: Step Time =,    60.00,"TUBE-1",          7713,   7.07107E-03,   7.07107E-03,   587.500E-03,NA,NA,"",   10.0109E-03,            0.,   588.511E-03,   10.8856E-06,   1.14251E+03
C:/ALETube/PressureUpdate/LargeStep/DeformErode/JobErode.odb,Step-1,Increment      6: Step Time =,    60.00,"TUBE-1",          7911,   5.87785E-03,   8.09017E-03,   600.000E-03,NA,NA,"",   10.0111E-03,  -867.362E-21,   601.007E-03,   11.1081E-06,   1.16551E+03
C:/ALETube/PressureUpdate/LargeStep/DeformErode/JobErode.odb,Step-1,Increment      6: Step Time =,    60.00,"TUBE-1",          7877,   7.07107E-03,   7.07107E-03,   600.000E-03,NA,NA,"",   10.0111E-03,            0.,   601.007E-03,   11.1172E-06,   1.16680E+03
C:/ALETube/PressureUpdate/LargeStep/DeformErode/JobErode.odb,Step-1,Increment      6: Step Time =,    60.00,"TUBE-1",          8075,   5.87785E-03,   8.09017E-03,   612.500E-03,NA,NA,"",   10.0113E-03,  -867.362E-21,   613.502E-03,   11.3395E-06,   1.18977E+03
C:/ALETube/PressureUpdate/LargeStep/DeformErode/JobErode.odb,Step-1,Increment      6: Step Time =,    60.00,"TUBE-1",          8041,   7.07107E-03,   7.07107E-03,   612.500E-03,NA,NA,"",   10.0113E-03,            0.,   613.502E-03,   11.3488E-06,   1.19108E+03
C:/ALETube/PressureUpdate/LargeStep/DeformErode/JobErode.odb,Step-1,Increment      6: Step Time =,    60.00,"TUBE-1",          8205,   7.07107E-03,   7.07107E-03,      625.E-03,NA,NA,"",   10.0116E-03,            0.,   625.998E-03,   11.5804E-06,   1.21537E+03
C:/ALETube/PressureUpdate/LargeStep/DeformErode/JobErode.odb,Step-1,Increment      6: Step Time =,    60.00,"TUBE-1",          8239,   5.87785E-03,   8.09017E-03,      625.E-03,NA,NA,"",   10.0116E-03,  -867.362E-21,   625.998E-03,   11.5709E-06,   1.21403E+03
C:/ALETube/PressureUpdate/LargeStep/DeformErode/JobErode.odb,Step-1,Increment      6: Step Time =,    60.00,"TUBE-1",          8403,   5.87785E-03,   8.09017E-03,   637.500E-03,NA,NA,"",   10.0118E-03,            0.,   638.494E-03,   11.8023E-06,   1.23829E+03
C:/ALETube/PressureUpdate/LargeStep/DeformErode/JobErode.odb,Step-1,Increment      6: Step Time =,    60.00,"TUBE-1",          8369,   7.07107E-03,   7.07107E-03,   637.500E-03,NA,NA,"",   10.0118E-03,            0.,   638.494E-03,   11.8120E-06,   1.23966E+03
C:/ALETube/PressureUpdate/LargeStep/DeformErode/JobErode.odb,Step-1,Increment      6: Step Time =,    60.00,"TUBE-1",          8567,   5.87785E-03,   8.09017E-03,   650.000E-03,NA,NA,"",   10.0120E-03,   867.362E-21,   650.989E-03,   12.0337E-06,   1.26255E+03
C:/ALETube/PressureUpdate/LargeStep/DeformErode/JobErode.odb,Step-1,Increment      6: Step Time =,    60.00,"TUBE-1",          8533,   7.07107E-03,   7.07107E-03,   650.000E-03,NA,NA,"",   10.0120E-03,            0.,   650.989E-03,   12.0436E-06,   1.26394E+03
C:/ALETube/PressureUpdate/LargeStep/DeformErode/JobErode.odb,Step-1,Increment      6: Step Time =,    60.00,"TUBE-1",          8731,   5.87785E-03,   8.09017E-03,   662.500E-03,NA,NA,"",   10.0123E-03,   867.362E-21,   663.485E-03,   12.2651E-06,   1.28681E+03
C:/ALETube/PressureUpdate/LargeStep/DeformErode/JobErode.odb,Step-1,Increment      6: Step Time =,    60.00,"TUBE-1",          8697,   7.07107E-03,   7.07107E-03,   662.500E-03,NA,NA,"",   10.0123E-03,            0.,   663.485E-03,   12.2752E-06,   1.28823E+03
C:/ALETube/PressureUpdate/LargeStep/DeformErode/JobErode.odb,Step-1,Increment      6: Step Time =,    60.00,"TUBE-1",          8895,   5.87785E-03,   8.09017E-03,   675.000E-03,NA,NA,"",   10.0125E-03,            0.,   675.980E-03,   12.4965E-06,   1.31107E+03
C:/ALETube/PressureUpdate/LargeStep/DeformErode/JobErode.odb,Step-1,Increment      6: Step Time =,    60.00,"TUBE-1",          8861,   7.07107E-03,   7.07107E-03,   675.000E-03,NA,NA,"",   10.0125E-03,            0.,   675.980E-03,   12.5068E-06,   1.31251E+03
C:/ALETube/PressureUpdate/LargeStep/DeformErode/JobErode.odb,Step-1,Increment      6: Step Time =,    60.00,"TUBE-1",          9025,   7.07107E-03,   7.07107E-03,     687.5E-03,NA,NA,"",   10.0127E-03,            0.,   688.475E-03,   12.7384E-06,   1.33679E+03
C:/ALETube/PressureUpdate/LargeStep/DeformErode/JobErode.odb,Step-1,Increment      6: Step Time =,    60.00,"TUBE-1",          9059,   5.87785E-03,   8.09017E-03,     687.5E-03,NA,NA,"",   10.0127E-03,            0.,   688.475E-03,   12.7279E-06,   1.33532E+03
C:/ALETube/PressureUpdate/LargeStep/DeformErode/JobErode.odb,Step-1,Increment      6: Step Time =,    60.00,"TUBE-1",          9223,   5.87785E-03,   8.09017E-03,   700.000E-03,NA,NA,"",   10.0130E-03,            0.,   700.970E-03,   12.9593E-06,   1.35958E+03
C:/ALETube/PressureUpdate/LargeStep/DeformErode/JobErode.odb,Step-1,Increment      6: Step Time =,    60.00,"TUBE-1",          9189,   7.07107E-03,   7.07107E-03,   700.000E-03,NA,NA,"",   10.0130E-03,            0.,   700.970E-03,   12.9699E-06,   1.36108E+03
C:/ALETube/PressureUpdate/LargeStep/DeformErode/JobErode.odb,Step-1,Increment      6: Step Time =,    60.00,"TUBE-1",          9387,   5.87785E-03,   8.09017E-03,   712.500E-03,NA,NA,"",   10.0132E-03,            0.,   713.465E-03,   13.1907E-06,   1.38383E+03
C:/ALETube/PressureUpdate/LargeStep/DeformErode/JobErode.odb,Step-1,Increment      6: Step Time =,    60.00,"TUBE-1",          9353,   7.07107E-03,   7.07107E-03,   712.500E-03,NA,NA,"",   10.0132E-03,            0.,   713.465E-03,   13.2015E-06,   1.38536E+03
C:/ALETube/PressureUpdate/LargeStep/DeformErode/JobErode.odb,Step-1,Increment      6: Step Time =,    60.00,"TUBE-1",          9551,   5.87785E-03,   8.09017E-03,   725.000E-03,NA,NA,"",   10.0134E-03,            0.,   725.960E-03,   13.4221E-06,   1.40808E+03
C:/ALETube/PressureUpdate/LargeStep/DeformErode/JobErode.odb,Step-1,Increment      6: Step Time =,    60.00,"TUBE-1",          9517,   7.07107E-03,   7.07107E-03,   725.000E-03,NA,NA,"",   10.0134E-03,            0.,   725.960E-03,   13.4331E-06,   1.40964E+03
C:/ALETube/PressureUpdate/LargeStep/DeformErode/JobErode.odb,Step-1,Increment      6: Step Time =,    60.00,"TUBE-1",          9715,   5.87785E-03,   8.09017E-03,   737.500E-03,NA,NA,"",   10.0137E-03,            0.,   738.455E-03,   13.6535E-06,   1.43234E+03
C:/ALETube/PressureUpdate/LargeStep/DeformErode/JobErode.odb,Step-1,Increment      6: Step Time =,    60.00,"TUBE-1",          9681,   7.07107E-03,   7.07107E-03,   737.500E-03,NA,NA,"",   10.0137E-03,            0.,   738.455E-03,   13.6647E-06,   1.43392E+03
C:/ALETube/PressureUpdate/LargeStep/DeformErode/JobErode.odb,Step-1,Increment      6: Step Time =,    60.00,"TUBE-1",          9845,   7.07107E-03,   7.07107E-03,      750.E-03,NA,NA,"",   10.0139E-03,            0.,   750.950E-03,   13.8963E-06,   1.45819E+03
C:/ALETube/PressureUpdate/LargeStep/DeformErode/JobErode.odb,Step-1,Increment      6: Step Time =,    60.00,"TUBE-1",          9879,   5.87785E-03,   8.09017E-03,      750.E-03,NA,NA,"",   10.0139E-03,            0.,   750.950E-03,   13.8849E-06,   1.45659E+03
C:/ALETube/PressureUpdate/LargeStep/DeformErode/JobErode.odb,Step-1,Increment      6: Step Time =,    60.00,"TUBE-1",         10043,   5.87785E-03,   8.09017E-03,   762.500E-03,NA,NA,"",   10.0141E-03,            0.,   763.445E-03,   14.1163E-06,   1.48084E+03
C:/ALETube/PressureUpdate/LargeStep/DeformErode/JobErode.odb,Step-1,Increment      6: Step Time =,    60.00,"TUBE-1",         10009,   7.07107E-03,   7.07107E-03,   762.500E-03,NA,NA,"",   10.0141E-03,            0.,   763.445E-03,   14.1279E-06,   1.48247E+03
C:/ALETube/PressureUpdate/LargeStep/DeformErode/JobErode.odb,Step-1,Increment      6: Step Time =,    60.00,"TUBE-1",         10207,   5.87785E-03,   8.09017E-03,   775.000E-03,NA,NA,"",   10.0143E-03,            0.,   775.940E-03,   14.3477E-06,   1.50509E+03
C:/ALETube/PressureUpdate/LargeStep/DeformErode/JobErode.odb,Step-1,Increment      6: Step Time =,    60.00,"TUBE-1",         10173,   7.07107E-03,   7.07107E-03,   775.000E-03,NA,NA,"",   10.0144E-03,            0.,   775.940E-03,   14.3594E-06,   1.50675E+03
C:/ALETube/PressureUpdate/LargeStep/DeformErode/JobErode.odb,Step-1,Increment      6: Step Time =,    60.00,"TUBE-1",         10371,   5.87785E-03,   8.09017E-03,   787.500E-03,NA,NA,"",   10.0146E-03,            0.,   788.434E-03,   14.5790E-06,   1.52934E+03
C:/ALETube/PressureUpdate/LargeStep/DeformErode/JobErode.odb,Step-1,Increment      6: Step Time =,    60.00,"TUBE-1",         10337,   7.07107E-03,   7.07107E-03,   787.500E-03,NA,NA,"",   10.0146E-03,            0.,   788.434E-03,   14.5910E-06,   1.53102E+03
C:/ALETube/PressureUpdate/LargeStep/DeformErode/JobErode.odb,Step-1,Increment      6: Step Time =,    60.00,"TUBE-1",         10535,   5.87785E-03,   8.09017E-03,   800.000E-03,NA,NA,"",   10.0148E-03,  -867.362E-21,   800.929E-03,   14.8104E-06,   1.55358E+03
C:/ALETube/PressureUpdate/LargeStep/DeformErode/JobErode.odb,Step-1,Increment      6: Step Time =,    60.00,"TUBE-1",         10501,   7.07107E-03,   7.07107E-03,   800.000E-03,NA,NA,"",   10.0148E-03,            0.,   800.929E-03,   14.8226E-06,   1.55530E+03
C:/ALETube/PressureUpdate/LargeStep/DeformErode/JobErode.odb,Step-1,Increment      6: Step Time =,    60.00,"TUBE-1",         10665,   7.07107E-03,   7.07107E-03,     812.5E-03,NA,NA,"",   10.0151E-03,            0.,   813.423E-03,   15.0542E-06,   1.57957E+03
C:/ALETube/PressureUpdate/LargeStep/DeformErode/JobErode.odb,Step-1,Increment      6: Step Time =,    60.00,"TUBE-1",         10699,   5.87785E-03,   8.09017E-03,     812.5E-03,NA,NA,"",   10.0150E-03,            0.,   813.423E-03,   15.0418E-06,   1.57783E+03
C:/ALETube/PressureUpdate/LargeStep/DeformErode/JobErode.odb,Step-1,Increment      6: Step Time =,    60.00,"TUBE-1",         10863,   5.87785E-03,   8.09017E-03,   825.000E-03,NA,NA,"",   10.0153E-03,            0.,   825.917E-03,   15.2732E-06,   1.60208E+03
C:/ALETube/PressureUpdate/LargeStep/DeformErode/JobErode.odb,Step-1,Increment      6: Step Time =,    60.00,"TUBE-1",         10829,   7.07107E-03,   7.07107E-03,   825.000E-03,NA,NA,"",   10.0153E-03,            0.,   825.917E-03,   15.2857E-06,   1.60384E+03
C:/ALETube/PressureUpdate/LargeStep/DeformErode/JobErode.odb,Step-1,Increment      6: Step Time =,    60.00,"TUBE-1",         11027,   5.87785E-03,   8.09017E-03,   837.500E-03,NA,NA,"",   10.0155E-03,            0.,   838.412E-03,   15.5046E-06,   1.62632E+03
C:/ALETube/PressureUpdate/LargeStep/DeformErode/JobErode.odb,Step-1,Increment      6: Step Time =,    60.00,"TUBE-1",         10993,   7.07107E-03,   7.07107E-03,   837.500E-03,NA,NA,"",   10.0155E-03,            0.,   838.412E-03,   15.5173E-06,   1.62811E+03
C:/ALETube/PressureUpdate/LargeStep/DeformErode/JobErode.odb,Step-1,Increment      6: Step Time =,    60.00,"TUBE-1",         11191,   5.87785E-03,   8.09017E-03,   850.000E-03,NA,NA,"",   10.0157E-03,            0.,   850.906E-03,   15.7360E-06,   1.65056E+03
C:/ALETube/PressureUpdate/LargeStep/DeformErode/JobErode.odb,Step-1,Increment      6: Step Time =,    60.00,"TUBE-1",         11157,   7.07107E-03,   7.07107E-03,   850.000E-03,NA,NA,"",   10.0157E-03,            0.,   850.906E-03,   15.7489E-06,   1.65238E+03
C:/ALETube/PressureUpdate/LargeStep/DeformErode/JobErode.odb,Step-1,Increment      6: Step Time =,    60.00,"TUBE-1",         11355,   5.87785E-03,   8.09017E-03,   862.500E-03,NA,NA,"",   10.0160E-03,            0.,   863.400E-03,   15.9673E-06,   1.67481E+03
C:/ALETube/PressureUpdate/LargeStep/DeformErode/JobErode.odb,Step-1,Increment      6: Step Time =,    60.00,"TUBE-1",         11321,   7.07107E-03,   7.07107E-03,   862.500E-03,NA,NA,"",   10.0160E-03,            0.,   863.400E-03,   15.9804E-06,   1.67665E+03
C:/ALETube/PressureUpdate/LargeStep/DeformErode/JobErode.odb,Step-1,Increment      6: Step Time =,    60.00,"TUBE-1",         11485,   7.07107E-03,   7.07107E-03,      875.E-03,NA,NA,"",   10.0162E-03,            0.,   875.894E-03,   16.2120E-06,   1.70092E+03
C:/ALETube/PressureUpdate/LargeStep/DeformErode/JobErode.odb,Step-1,Increment      6: Step Time =,    60.00,"TUBE-1",         11519,   5.87785E-03,   8.09017E-03,      875.E-03,NA,NA,"",   10.0162E-03,            0.,   875.894E-03,   16.1987E-06,   1.69905E+03
C:/ALETube/PressureUpdate/LargeStep/DeformErode/JobErode.odb,Step-1,Increment      6: Step Time =,    60.00,"TUBE-1",         11683,   5.87785E-03,   8.09017E-03,   887.500E-03,NA,NA,"",   10.0164E-03,            0.,   888.388E-03,   16.4301E-06,   1.72329E+03
C:/ALETube/PressureUpdate/LargeStep/DeformErode/JobErode.odb,Step-1,Increment      6: Step Time =,    60.00,"TUBE-1",         11649,   7.07107E-03,   7.07107E-03,   887.500E-03,NA,NA,"",   10.0164E-03,            0.,   888.388E-03,   16.4435E-06,   1.72519E+03
C:/ALETube/PressureUpdate/LargeStep/DeformErode/JobErode.odb,Step-1,Increment      6: Step Time =,    60.00,"TUBE-1",         11847,   5.87785E-03,   8.09017E-03,   900.000E-03,NA,NA,"",   10.0167E-03,            0.,   900.881E-03,   16.6614E-06,   1.74753E+03
C:/ALETube/PressureUpdate/LargeStep/DeformErode/JobErode.odb,Step-1,Increment      6: Step Time =,    60.00,"TUBE-1",         11813,   7.07107E-03,   7.07107E-03,   900.000E-03,NA,NA,"",   10.0167E-03,            0.,   900.881E-03,   16.6751E-06,   1.74946E+03
C:/ALETube/PressureUpdate/LargeStep/DeformErode/JobErode.odb,Step-1,Increment      6: Step Time =,    60.00,"TUBE-1",         12011,   5.87785E-03,   8.09017E-03,   912.500E-03,NA,NA,"",   10.0169E-03,   867.362E-21,   913.375E-03,   16.8928E-06,   1.77177E+03
C:/ALETube/PressureUpdate/LargeStep/DeformErode/JobErode.odb,Step-1,Increment      6: Step Time =,    60.00,"TUBE-1",         11977,   7.07107E-03,   7.07107E-03,   912.500E-03,NA,NA,"",   10.0169E-03,            0.,   913.375E-03,   16.9067E-06,   1.77372E+03
C:/ALETube/PressureUpdate/LargeStep/DeformErode/JobErode.odb,Step-1,Increment      6: Step Time =,    60.00,"TUBE-1",         12175,   5.87785E-03,   8.09017E-03,   925.000E-03,NA,NA,"",   10.0171E-03,            0.,   925.869E-03,   17.1242E-06,   1.79601E+03
C:/ALETube/PressureUpdate/LargeStep/DeformErode/JobErode.odb,Step-1,Increment      6: Step Time =,    60.00,"TUBE-1",         12141,   7.07107E-03,   7.07107E-03,   925.000E-03,NA,NA,"",   10.0171E-03,            0.,   925.869E-03,   17.1382E-06,   1.79799E+03
C:/ALETube/PressureUpdate/LargeStep/DeformErode/JobErode.odb,Step-1,Increment      6: Step Time =,    60.00,"TUBE-1",         12305,   7.07107E-03,   7.07107E-03,     937.5E-03,NA,NA,"",   10.0174E-03,            0.,   938.362E-03,   17.3698E-06,   1.82225E+03
C:/ALETube/PressureUpdate/LargeStep/DeformErode/JobErode.odb,Step-1,Increment      6: Step Time =,    60.00,"TUBE-1",         12339,   5.87785E-03,   8.09017E-03,     937.5E-03,NA,NA,"",   10.0174E-03,            0.,   938.362E-03,   17.3555E-06,   1.82025E+03
C:/ALETube/PressureUpdate/LargeStep/DeformErode/JobErode.odb,Step-1,Increment      6: Step Time =,    60.00,"TUBE-1",         12503,   5.87785E-03,   8.09017E-03,   950.000E-03,NA,NA,"",   10.0176E-03,            0.,   950.856E-03,   17.5869E-06,   1.84448E+03
C:/ALETube/PressureUpdate/LargeStep/DeformErode/JobErode.odb,Step-1,Increment      6: Step Time =,    60.00,"TUBE-1",         12469,   7.07107E-03,   7.07107E-03,   950.000E-03,NA,NA,"",   10.0176E-03,            0.,   950.856E-03,   17.6013E-06,   1.84651E+03
C:/ALETube/PressureUpdate/LargeStep/DeformErode/JobErode.odb,Step-1,Increment      6: Step Time =,    60.00,"TUBE-1",         12667,   5.87785E-03,   8.09017E-03,   962.500E-03,NA,NA,"",   10.0178E-03,            0.,   963.349E-03,   17.8183E-06,   1.86872E+03
C:/ALETube/PressureUpdate/LargeStep/DeformErode/JobErode.odb,Step-1,Increment      6: Step Time =,    60.00,"TUBE-1",         12633,   7.07107E-03,   7.07107E-03,   962.500E-03,NA,NA,"",   10.0178E-03,            0.,   963.349E-03,   17.8329E-06,   1.87078E+03
C:/ALETube/PressureUpdate/LargeStep/DeformErode/JobErode.odb,Step-1,Increment      6: Step Time =,    60.00,"TUBE-1",         12831,   5.87785E-03,   8.09017E-03,   975.000E-03,NA,NA,"",   10.0180E-03,            0.,   975.842E-03,   18.0496E-06,   1.89295E+03
C:/ALETube/PressureUpdate/LargeStep/DeformErode/JobErode.odb,Step-1,Increment      6: Step Time =,    60.00,"TUBE-1",         12797,   7.07107E-03,   7.07107E-03,   975.000E-03,NA,NA,"",   10.0181E-03,            0.,   975.842E-03,   18.0644E-06,   1.89504E+03
C:/ALETube/PressureUpdate/LargeStep/DeformErode/JobErode.odb,Step-1,Increment      6: Step Time =,    60.00,"TUBE-1",         12995,   5.87785E-03,   8.09017E-03,   987.500E-03,NA,NA,"",   10.0183E-03,            0.,   988.336E-03,   18.2810E-06,   1.91718E+03
C:/ALETube/PressureUpdate/LargeStep/DeformErode/JobErode.odb,Step-1,Increment      6: Step Time =,    60.00,"TUBE-1",         12961,   7.07107E-03,   7.07107E-03,   987.500E-03,NA,NA,"",   10.0183E-03,            0.,   988.336E-03,   18.2960E-06,   1.91930E+03
C:/ALETube/PressureUpdate/LargeStep/DeformErode/JobErode.odb,Step-1,Increment      6: Step Time =,    60.00,"TUBE-1",         13125,   7.07107E-03,   7.07107E-03,            1.,NA,NA,"",   10.0185E-03,            0.,       1.00083,   18.5275E-06,   1.94356E+03
C:/ALETube/PressureUpdate/LargeStep/DeformErode/JobErode.odb,Step-1,Increment      6: Step Time =,    60.00,"TUBE-1",         13159,   5.87785E-03,   8.09017E-03,            1.,NA,NA,"",   10.0185E-03,            0.,       1.00083,   18.5124E-06,   1.94142E+03
C:/ALETube/PressureUpdate/LargeStep/DeformErode/JobErode.odb,Step-1,Increment      6: Step Time =,    60.00,"TUBE-1",         13323,   5.87785E-03,   8.09017E-03,       1.01250,NA,NA,"",   10.0187E-03,            0.,       1.01332,   18.7437E-06,   1.96565E+03
C:/ALETube/PressureUpdate/LargeStep/DeformErode/JobErode.odb,Step-1,Increment      6: Step Time =,    60.00,"TUBE-1",         13289,   7.07107E-03,   7.07107E-03,       1.01250,NA,NA,"",   10.0188E-03,            0.,       1.01332,   18.7591E-06,   1.96781E+03
C:/ALETube/PressureUpdate/LargeStep/DeformErode/JobErode.odb,Step-1,Increment      6: Step Time =,    60.00,"TUBE-1",         13487,   5.87785E-03,   8.09017E-03,       1.02500,NA,NA,"",   10.0190E-03,            0.,       1.02581,   18.9751E-06,   1.98988E+03
C:/ALETube/PressureUpdate/LargeStep/DeformErode/JobErode.odb,Step-1,Increment      6: Step Time =,    60.00,"TUBE-1",         13453,   7.07107E-03,   7.07107E-03,       1.02500,NA,NA,"",   10.0190E-03,            0.,       1.02581,   18.9906E-06,   1.99207E+03
C:/ALETube/PressureUpdate/LargeStep/DeformErode/JobErode.odb,Step-1,Increment      6: Step Time =,    60.00,"TUBE-1",         13617,   7.07107E-03,   7.07107E-03,       1.03750,NA,NA,"",   10.0192E-03,            0.,       1.03831,   19.2222E-06,   2.01633E+03
C:/ALETube/PressureUpdate/LargeStep/DeformErode/JobErode.odb,Step-1,Increment      6: Step Time =,    60.00,"TUBE-1",         13651,   5.87785E-03,   8.09017E-03,       1.03750,NA,NA,"",   10.0192E-03,  -867.362E-21,       1.03831,   19.2064E-06,   2.01411E+03
C:/ALETube/PressureUpdate/LargeStep/DeformErode/JobErode.odb,Step-1,Increment      6: Step Time =,    60.00,"TUBE-1",         13815,   5.87785E-03,   8.09017E-03,       1.05000,NA,NA,"",   10.0194E-03,            0.,       1.05080,   19.4378E-06,   2.03834E+03
C:/ALETube/PressureUpdate/LargeStep/DeformErode/JobErode.odb,Step-1,Increment      6: Step Time =,    60.00,"TUBE-1",         13781,   7.07107E-03,   7.07107E-03,       1.05000,NA,NA,"",   10.0195E-03,            0.,       1.05080,   19.4537E-06,   2.04058E+03
C:/ALETube/PressureUpdate/LargeStep/DeformErode/JobErode.odb,Step-1,Increment      6: Step Time =,    60.00,"TUBE-1",         13979,   5.87785E-03,   8.09017E-03,        1.0625,NA,NA,"",   10.0197E-03,            0.,       1.06329,   19.6691E-06,   2.06257E+03
C:/ALETube/PressureUpdate/LargeStep/DeformErode/JobErode.odb,Step-1,Increment      6: Step Time =,    60.00,"TUBE-1",         13945,   7.07107E-03,   7.07107E-03,        1.0625,NA,NA,"",   10.0197E-03,            0.,       1.06329,   19.6852E-06,   2.06484E+03
C:/ALETube/PressureUpdate/LargeStep/DeformErode/JobErode.odb,Step-1,Increment      6: Step Time =,    60.00,"TUBE-1",         14109,   7.07107E-03,   7.07107E-03,       1.07500,NA,NA,"",   10.0199E-03,            0.,       1.07579,   19.9168E-06,   2.08909E+03
C:/ALETube/PressureUpdate/LargeStep/DeformErode/JobErode.odb,Step-1,Increment      6: Step Time =,    60.00,"TUBE-1",         14143,   5.87785E-03,   8.09017E-03,       1.07500,NA,NA,"",   10.0199E-03,   867.362E-21,       1.07579,   19.9005E-06,   2.08679E+03
C:/ALETube/PressureUpdate/LargeStep/DeformErode/JobErode.odb,Step-1,Increment      6: Step Time =,    60.00,"TUBE-1",         14307,   5.87785E-03,   8.09017E-03,       1.08750,NA,NA,"",   10.0201E-03,            0.,       1.08828,   20.1318E-06,   2.11102E+03
C:/ALETube/PressureUpdate/LargeStep/DeformErode/JobErode.odb,Step-1,Increment      6: Step Time =,    60.00,"TUBE-1",         14273,   7.07107E-03,   7.07107E-03,       1.08750,NA,NA,"",   10.0201E-03,            0.,       1.08828,   20.1483E-06,   2.11334E+03
C:/ALETube/PressureUpdate/LargeStep/DeformErode/JobErode.odb,Step-1,Increment      6: Step Time =,    60.00,"TUBE-1",         14471,   5.87785E-03,   8.09017E-03,       1.10000,NA,NA,"",   10.0204E-03,            0.,       1.10077,   20.3632E-06,   2.13524E+03
C:/ALETube/PressureUpdate/LargeStep/DeformErode/JobErode.odb,Step-1,Increment      6: Step Time =,    60.00,"TUBE-1",         14437,   7.07107E-03,   7.07107E-03,       1.10000,NA,NA,"",   10.0204E-03,            0.,       1.10077,   20.3798E-06,   2.13759E+03
C:/ALETube/PressureUpdate/LargeStep/DeformErode/JobErode.odb,Step-1,Increment      6: Step Time =,    60.00,"TUBE-1",         14635,   5.87785E-03,   8.09017E-03,       1.11250,NA,NA,"",   10.0206E-03,  -867.362E-21,       1.11326,   20.5945E-06,   2.15947E+03
C:/ALETube/PressureUpdate/LargeStep/DeformErode/JobErode.odb,Step-1,Increment      6: Step Time =,    60.00,"TUBE-1",         14601,   7.07107E-03,   7.07107E-03,       1.11250,NA,NA,"",   10.0206E-03,            0.,       1.11326,   20.6114E-06,   2.16185E+03
C:/ALETube/PressureUpdate/LargeStep/DeformErode/JobErode.odb,Step-1,Increment      6: Step Time =,    60.00,"TUBE-1",         14799,   5.87785E-03,   8.09017E-03,         1.125,NA,NA,"",   10.0208E-03,   867.362E-21,       1.12575,   20.8258E-06,   2.18369E+03
C:/ALETube/PressureUpdate/LargeStep/DeformErode/JobErode.odb,Step-1,Increment      6: Step Time =,    60.00,"TUBE-1",         14765,   7.07107E-03,   7.07107E-03,         1.125,NA,NA,"",   10.0208E-03,            0.,       1.12575,   20.8429E-06,   2.18610E+03
C:/ALETube/PressureUpdate/LargeStep/DeformErode/JobErode.odb,Step-1,Increment      6: Step Time =,    60.00,"TUBE-1",         14929,   7.07107E-03,   7.07107E-03,       1.13750,NA,NA,"",   10.0211E-03,            0.,       1.13825,   21.0744E-06,   2.21034E+03
C:/ALETube/PressureUpdate/LargeStep/DeformErode/JobErode.odb,Step-1,Increment      6: Step Time =,    60.00,"TUBE-1",         14963,   5.87785E-03,   8.09017E-03,       1.13750,NA,NA,"",   10.0211E-03,  -867.362E-21,       1.13825,   21.0572E-06,   2.20791E+03
C:/ALETube/PressureUpdate/LargeStep/DeformErode/JobErode.odb,Step-1,Increment      6: Step Time =,    60.00,"TUBE-1",         15127,   5.87785E-03,   8.09017E-03,       1.15000,NA,NA,"",   10.0213E-03,  -867.362E-21,       1.15074,   21.2885E-06,   2.23213E+03
C:/ALETube/PressureUpdate/LargeStep/DeformErode/JobErode.odb,Step-1,Increment      6: Step Time =,    60.00,"TUBE-1",         15093,   7.07107E-03,   7.07107E-03,       1.15000,NA,NA,"",   10.0213E-03,            0.,       1.15074,   21.3059E-06,   2.23459E+03
C:/ALETube/PressureUpdate/LargeStep/DeformErode/JobErode.odb,Step-1,Increment      6: Step Time =,    60.00,"TUBE-1",         15291,   5.87785E-03,   8.09017E-03,       1.16250,NA,NA,"",   10.0215E-03,            0.,       1.16323,   21.5199E-06,   2.25636E+03
C:/ALETube/PressureUpdate/LargeStep/DeformErode/JobErode.odb,Step-1,Increment      6: Step Time =,    60.00,"TUBE-1",         15257,   7.07107E-03,   7.07107E-03,       1.16250,NA,NA,"",   10.0215E-03,            0.,       1.16323,   21.5375E-06,   2.25884E+03
C:/ALETube/PressureUpdate/LargeStep/DeformErode/JobErode.odb,Step-1,Increment      6: Step Time =,    60.00,"TUBE-1",         15455,   5.87785E-03,   8.09017E-03,       1.17500,NA,NA,"",   10.0218E-03,            0.,       1.17572,   21.7512E-06,   2.28057E+03
C:/ALETube/PressureUpdate/LargeStep/DeformErode/JobErode.odb,Step-1,Increment      6: Step Time =,    60.00,"TUBE-1",         15421,   7.07107E-03,   7.07107E-03,       1.17500,NA,NA,"",   10.0218E-03,            0.,       1.17572,   21.7690E-06,   2.28308E+03
C:/ALETube/PressureUpdate/LargeStep/DeformErode/JobErode.odb,Step-1,Increment      6: Step Time =,    60.00,"TUBE-1",         15619,   5.87785E-03,   8.09017E-03,        1.1875,NA,NA,"",   10.0220E-03,            0.,       1.18821,   21.9825E-06,   2.30479E+03
C:/ALETube/PressureUpdate/LargeStep/DeformErode/JobErode.odb,Step-1,Increment      6: Step Time =,    60.00,"TUBE-1",         15585,   7.07107E-03,   7.07107E-03,        1.1875,NA,NA,"",   10.0220E-03,            0.,       1.18821,   22.0005E-06,   2.30733E+03
C:/ALETube/PressureUpdate/LargeStep/DeformErode/JobErode.odb,Step-1,Increment      6: Step Time =,    60.00,"TUBE-1",         15749,   7.07107E-03,   7.07107E-03,       1.20000,NA,NA,"",   10.0222E-03,            0.,       1.20071,   22.2320E-06,   2.33157E+03
C:/ALETube/PressureUpdate/LargeStep/DeformErode/JobErode.odb,Step-1,Increment      6: Step Time =,    60.00,"TUBE-1",         15783,   5.87785E-03,   8.09017E-03,       1.20000,NA,NA,"",   10.0222E-03,  -867.362E-21,       1.20071,   22.2138E-06,   2.32901E+03
C:/ALETube/PressureUpdate/LargeStep/DeformErode/JobErode.odb,Step-1,Increment      6: Step Time =,    60.00,"TUBE-1",         15947,   5.87785E-03,   8.09017E-03,       1.21250,NA,NA,"",   10.0224E-03,            0.,       1.21320,   22.4452E-06,   2.35323E+03
C:/ALETube/PressureUpdate/LargeStep/DeformErode/JobErode.odb,Step-1,Increment      6: Step Time =,    60.00,"TUBE-1",         15913,   7.07107E-03,   7.07107E-03,       1.21250,NA,NA,"",   10.0225E-03,            0.,       1.21320,   22.4635E-06,   2.35582E+03
C:/ALETube/PressureUpdate/LargeStep/DeformErode/JobErode.odb,Step-1,Increment      6: Step Time =,    60.00,"TUBE-1",         16111,   5.87785E-03,   8.09017E-03,       1.22500,NA,NA,"",   10.0227E-03,            0.,       1.22569,   22.6765E-06,   2.37744E+03
C:/ALETube/PressureUpdate/LargeStep/DeformErode/JobErode.odb,Step-1,Increment      6: Step Time =,    60.00,"TUBE-1",         16077,   7.07107E-03,   7.07107E-03,       1.22500,NA,NA,"",   10.0227E-03,            0.,       1.22569,   22.6951E-06,   2.38006E+03
C:/ALETube/PressureUpdate/LargeStep/DeformErode/JobErode.odb,Step-1,Increment      6: Step Time =,    60.00,"TUBE-1",         16275,   5.87785E-03,   8.09017E-03,       1.23750,NA,NA,"",   10.0229E-03,  -867.362E-21,       1.23818,   22.9078E-06,   2.40166E+03
C:/ALETube/PressureUpdate/LargeStep/DeformErode/JobErode.odb,Step-1,Increment      6: Step Time =,    60.00,"TUBE-1",         16241,   7.07107E-03,   7.07107E-03,       1.23750,NA,NA,"",   10.0229E-03,            0.,       1.23818,   22.9266E-06,   2.40430E+03
C:/ALETube/PressureUpdate/LargeStep/DeformErode/JobErode.odb,Step-1,Increment      6: Step Time =,    60.00,"TUBE-1",         16439,   5.87785E-03,   8.09017E-03,          1.25,NA,NA,"",   10.0231E-03,            0.,       1.25067,   23.1392E-06,   2.42587E+03
C:/ALETube/PressureUpdate/LargeStep/DeformErode/JobErode.odb,Step-1,Increment      6: Step Time =,    60.00,"TUBE-1",         16405,   7.07107E-03,   7.07107E-03,          1.25,NA,NA,"",   10.0232E-03,            0.,       1.25067,   23.1581E-06,   2.42854E+03
C:/ALETube/PressureUpdate/LargeStep/DeformErode/JobErode.odb,Step-1,Increment      6: Step Time =,    60.00,"TUBE-1",         16569,   7.07107E-03,   7.07107E-03,       1.26250,NA,NA,"",   10.0234E-03,            0.,       1.26316,   23.3896E-06,   2.45278E+03
C:/ALETube/PressureUpdate/LargeStep/DeformErode/JobErode.odb,Step-1,Increment      6: Step Time =,    60.00,"TUBE-1",         16603,   5.87785E-03,   8.09017E-03,       1.26250,NA,NA,"",   10.0234E-03,            0.,       1.26316,   23.3705E-06,   2.45008E+03
C:/ALETube/PressureUpdate/LargeStep/DeformErode/JobErode.odb,Step-1,Increment      6: Step Time =,    60.00,"TUBE-1",         16767,   5.87785E-03,   8.09017E-03,       1.27500,NA,NA,"",   10.0236E-03,            0.,       1.27566,   23.6018E-06,   2.47430E+03
C:/ALETube/PressureUpdate/LargeStep/DeformErode/JobErode.odb,Step-1,Increment      6: Step Time =,    60.00,"TUBE-1",         16733,   7.07107E-03,   7.07107E-03,       1.27500,NA,NA,"",   10.0236E-03,            0.,       1.27566,   23.6211E-06,   2.47702E+03
C:/ALETube/PressureUpdate/LargeStep/DeformErode/JobErode.odb,Step-1,Increment      6: Step Time =,    60.00,"TUBE-1",         16931,   5.87785E-03,   8.09017E-03,       1.28750,NA,NA,"",   10.0238E-03,            0.,       1.28815,   23.8331E-06,   2.49851E+03
C:/ALETube/PressureUpdate/LargeStep/DeformErode/JobErode.odb,Step-1,Increment      6: Step Time =,    60.00,"TUBE-1",         16897,   7.07107E-03,   7.07107E-03,       1.28750,NA,NA,"",   10.0239E-03,            0.,       1.28815,   23.8526E-06,   2.50126E+03
C:/ALETube/PressureUpdate/LargeStep/DeformErode/JobErode.odb,Step-1,Increment      6: Step Time =,    60.00,"TUBE-1",         17095,   5.87785E-03,   8.09017E-03,       1.30000,NA,NA,"",   10.0241E-03,   867.362E-21,       1.30064,   24.0644E-06,   2.52272E+03
C:/ALETube/PressureUpdate/LargeStep/DeformErode/JobErode.odb,Step-1,Increment      6: Step Time =,    60.00,"TUBE-1",         17061,   7.07107E-03,   7.07107E-03,       1.30000,NA,NA,"",   10.0241E-03,            0.,       1.30064,   24.0841E-06,   2.52549E+03
C:/ALETube/PressureUpdate/LargeStep/DeformErode/JobErode.odb,Step-1,Increment      6: Step Time =,    60.00,"TUBE-1",         17259,   5.87785E-03,   8.09017E-03,        1.3125,NA,NA,"",   10.0243E-03,            0.,       1.31313,   24.2958E-06,   2.54693E+03
C:/ALETube/PressureUpdate/LargeStep/DeformErode/JobErode.odb,Step-1,Increment      6: Step Time =,    60.00,"TUBE-1",         17225,   7.07107E-03,   7.07107E-03,        1.3125,NA,NA,"",   10.0243E-03,            0.,       1.31313,   24.3156E-06,   2.54973E+03
C:/ALETube/PressureUpdate/LargeStep/DeformErode/JobErode.odb,Step-1,Increment      6: Step Time =,    60.00,"TUBE-1",         17389,   7.07107E-03,   7.07107E-03,       1.32500,NA,NA,"",   10.0245E-03,            0.,       1.32562,   24.5471E-06,   2.57396E+03
C:/ALETube/PressureUpdate/LargeStep/DeformErode/JobErode.odb,Step-1,Increment      6: Step Time =,    60.00,"TUBE-1",         17423,   5.87785E-03,   8.09017E-03,       1.32500,NA,NA,"",   10.0245E-03,            0.,       1.32562,   24.5271E-06,   2.57114E+03
C:/ALETube/PressureUpdate/LargeStep/DeformErode/JobErode.odb,Step-1,Increment      6: Step Time =,    60.00,"TUBE-1",         17587,   5.87785E-03,   8.09017E-03,       1.33750,NA,NA,"",   10.0248E-03,            0.,       1.33811,   24.7584E-06,   2.59534E+03
C:/ALETube/PressureUpdate/LargeStep/DeformErode/JobErode.odb,Step-1,Increment      6: Step Time =,    60.00,"TUBE-1",         17553,   7.07107E-03,   7.07107E-03,       1.33750,NA,NA,"",   10.0248E-03,            0.,       1.33811,   24.7786E-06,   2.59820E+03
C:/ALETube/PressureUpdate/LargeStep/DeformErode/JobErode.odb,Step-1,Increment      6: Step Time =,    60.00,"TUBE-1",         17751,   5.87785E-03,   8.09017E-03,       1.35000,NA,NA,"",   10.0250E-03,            0.,       1.35060,   24.9897E-06,   2.61955E+03
C:/ALETube/PressureUpdate/LargeStep/DeformErode/JobErode.odb,Step-1,Increment      6: Step Time =,    60.00,"TUBE-1",         17717,   7.07107E-03,   7.07107E-03,       1.35000,NA,NA,"",   10.0250E-03,            0.,       1.35060,   25.0101E-06,   2.62243E+03
C:/ALETube/PressureUpdate/LargeStep/DeformErode/JobErode.odb,Step-1,Increment      6: Step Time =,    60.00,"TUBE-1",         17915,   5.87785E-03,   8.09017E-03,       1.36250,NA,NA,"",   10.0252E-03,  -867.362E-21,       1.36309,   25.2210E-06,   2.64375E+03
C:/ALETube/PressureUpdate/LargeStep/DeformErode/JobErode.odb,Step-1,Increment      6: Step Time =,    60.00,"TUBE-1",         17881,   7.07107E-03,   7.07107E-03,       1.36250,NA,NA,"",   10.0252E-03,            0.,       1.36309,   25.2416E-06,   2.64666E+03
C:/ALETube/PressureUpdate/LargeStep/DeformErode/JobErode.odb,Step-1,Increment      6: Step Time =,    60.00,"TUBE-1",         18079,   5.87785E-03,   8.09017E-03,         1.375,NA,NA,"",   10.0255E-03,   867.362E-21,       1.37558,   25.4523E-06,   2.66796E+03
C:/ALETube/PressureUpdate/LargeStep/DeformErode/JobErode.odb,Step-1,Increment      6: Step Time =,    60.00,"TUBE-1",         18045,   7.07107E-03,   7.07107E-03,         1.375,NA,NA,"",   10.0255E-03,            0.,       1.37558,   25.4731E-06,   2.67089E+03
C:/ALETube/PressureUpdate/LargeStep/DeformErode/JobErode.odb,Step-1,Increment      6: Step Time =,    60.00,"TUBE-1",         18209,   7.07107E-03,   7.07107E-03,       1.38750,NA,NA,"",   10.0257E-03,            0.,       1.38807,   25.7046E-06,   2.69512E+03
C:/ALETube/PressureUpdate/LargeStep/DeformErode/JobErode.odb,Step-1,Increment      6: Step Time =,    60.00,"TUBE-1",         18243,   5.87785E-03,   8.09017E-03,       1.38750,NA,NA,"",   10.0257E-03,            0.,       1.38807,   25.6836E-06,   2.69216E+03
C:/ALETube/PressureUpdate/LargeStep/DeformErode/JobErode.odb,Step-1,Increment      6: Step Time =,    60.00,"TUBE-1",         18407,   5.87785E-03,   8.09017E-03,       1.40000,NA,NA,"",   10.0259E-03,  -867.362E-21,       1.40056,   25.9149E-06,   2.71636E+03
C:/ALETube/PressureUpdate/LargeStep/DeformErode/JobErode.odb,Step-1,Increment      6: Step Time =,    60.00,"TUBE-1",         18373,   7.07107E-03,   7.07107E-03,       1.40000,NA,NA,"",   10.0259E-03,            0.,       1.40056,   25.9361E-06,   2.71935E+03
C:/ALETube/PressureUpdate/LargeStep/DeformErode/JobErode.odb,Step-1,Increment      6: Step Time =,    60.00,"TUBE-1",         18571,   5.87785E-03,   8.09017E-03,       1.41250,NA,NA,"",   10.0261E-03,            0.,       1.41305,   26.1462E-06,   2.74057E+03
C:/ALETube/PressureUpdate/LargeStep/DeformErode/JobErode.odb,Step-1,Increment      6: Step Time =,    60.00,"TUBE-1",         18537,   7.07107E-03,   7.07107E-03,       1.41250,NA,NA,"",   10.0262E-03,            0.,       1.41305,   26.1676E-06,   2.74358E+03
C:/ALETube/PressureUpdate/LargeStep/DeformErode/JobErode.odb,Step-1,Increment      6: Step Time =,    60.00,"TUBE-1",         18735,   5.87785E-03,   8.09017E-03,       1.42500,NA,NA,"",   10.0264E-03,            0.,       1.42554,   26.3775E-06,   2.76477E+03
C:/ALETube/PressureUpdate/LargeStep/DeformErode/JobErode.odb,Step-1,Increment      6: Step Time =,    60.00,"TUBE-1",         18701,   7.07107E-03,   7.07107E-03,       1.42500,NA,NA,"",   10.0264E-03,            0.,       1.42554,   26.3991E-06,   2.76781E+03
C:/ALETube/PressureUpdate/LargeStep/DeformErode/JobErode.odb,Step-1,Increment      6: Step Time =,    60.00,"TUBE-1",         18899,   5.87785E-03,   8.09017E-03,        1.4375,NA,NA,"",   10.0266E-03,            0.,       1.43803,   26.6088E-06,   2.78897E+03
C:/ALETube/PressureUpdate/LargeStep/DeformErode/JobErode.odb,Step-1,Increment      6: Step Time =,    60.00,"TUBE-1",         18865,   7.07107E-03,   7.07107E-03,        1.4375,NA,NA,"",   10.0266E-03,            0.,       1.43803,   26.6306E-06,   2.79203E+03
C:/ALETube/PressureUpdate/LargeStep/DeformErode/JobErode.odb,Step-1,Increment      6: Step Time =,    60.00,"TUBE-1",         19029,   7.07107E-03,   7.07107E-03,       1.45000,NA,NA,"",   10.0269E-03,            0.,       1.45052,   26.8621E-06,   2.81626E+03
C:/ALETube/PressureUpdate/LargeStep/DeformErode/JobErode.odb,Step-1,Increment      6: Step Time =,    60.00,"TUBE-1",         19063,   5.87785E-03,   8.09017E-03,       1.45000,NA,NA,"",   10.0268E-03,  -867.362E-21,       1.45052,   26.8401E-06,   2.81317E+03
C:/ALETube/PressureUpdate/LargeStep/DeformErode/JobErode.odb,Step-1,Increment      6: Step Time =,    60.00,"TUBE-1",         19227,   5.87785E-03,   8.09017E-03,       1.46250,NA,NA,"",   10.0271E-03,            0.,       1.46301,   27.0714E-06,   2.83736E+03
C:/ALETube/PressureUpdate/LargeStep/DeformErode/JobErode.odb,Step-1,Increment      6: Step Time =,    60.00,"TUBE-1",         19193,   7.07107E-03,   7.07107E-03,       1.46250,NA,NA,"",   10.0271E-03,            0.,       1.46301,   27.0935E-06,   2.84048E+03
C:/ALETube/PressureUpdate/LargeStep/DeformErode/JobErode.odb,Step-1,Increment      6: Step Time =,    60.00,"TUBE-1",         19391,   5.87785E-03,   8.09017E-03,       1.47500,NA,NA,"",   10.0273E-03,   867.362E-21,       1.47550,   27.3027E-06,   2.86156E+03
C:/ALETube/PressureUpdate/LargeStep/DeformErode/JobErode.odb,Step-1,Increment      6: Step Time =,    60.00,"TUBE-1",         19357,   7.07107E-03,   7.07107E-03,       1.47500,NA,NA,"",   10.0273E-03,            0.,       1.47550,   27.3250E-06,   2.86471E+03
C:/ALETube/PressureUpdate/LargeStep/DeformErode/JobErode.odb,Step-1,Increment      6: Step Time =,    60.00,"TUBE-1",         19555,   5.87785E-03,   8.09017E-03,       1.48750,NA,NA,"",   10.0275E-03,  -867.362E-21,       1.48799,   27.5340E-06,   2.88576E+03
C:/ALETube/PressureUpdate/LargeStep/DeformErode/JobErode.odb,Step-1,Increment      6: Step Time =,    60.00,"TUBE-1",         19521,   7.07107E-03,   7.07107E-03,       1.48750,NA,NA,"",   10.0276E-03,            0.,       1.48799,   27.5565E-06,   2.88893E+03
C:/ALETube/PressureUpdate/LargeStep/DeformErode/JobErode.odb,Step-1,Increment      6: Step Time =,    60.00,"TUBE-1",         19719,   5.87785E-03,   8.09017E-03,           1.5,NA,NA,"",   10.0278E-03,  -867.362E-21,       1.50048,   27.7653E-06,   2.90995E+03
C:/ALETube/PressureUpdate/LargeStep/DeformErode/JobErode.odb,Step-1,Increment      6: Step Time =,    60.00,"TUBE-1",         19685,   7.07107E-03,   7.07107E-03,           1.5,NA,NA,"",   10.0278E-03,            0.,       1.50048,   27.7880E-06,   2.91315E+03
C:/ALETube/PressureUpdate/LargeStep/DeformErode/JobErode.odb,Step-1,Increment      6: Step Time =,    60.00,"TUBE-1",         19849,   7.07107E-03,   7.07107E-03,       1.51250,NA,NA,"",   10.0280E-03,            0.,       1.51297,   28.0194E-06,   2.93737E+03
C:/ALETube/PressureUpdate/LargeStep/DeformErode/JobErode.odb,Step-1,Increment      6: Step Time =,    60.00,"TUBE-1",         19883,   5.87785E-03,   8.09017E-03,       1.51250,NA,NA,"",   10.0280E-03,  -867.362E-21,       1.51297,   27.9966E-06,   2.93415E+03
C:/ALETube/PressureUpdate/LargeStep/DeformErode/JobErode.odb,Step-1,Increment      6: Step Time =,    60.00,"TUBE-1",         20047,   5.87785E-03,   8.09017E-03,       1.52500,NA,NA,"",   10.0282E-03,            0.,       1.52546,   28.2279E-06,   2.95834E+03
C:/ALETube/PressureUpdate/LargeStep/DeformErode/JobErode.odb,Step-1,Increment      6: Step Time =,    60.00,"TUBE-1",         20013,   7.07107E-03,   7.07107E-03,       1.52500,NA,NA,"",   10.0283E-03,            0.,       1.52546,   28.2509E-06,   2.96159E+03
C:/ALETube/PressureUpdate/LargeStep/DeformErode/JobErode.odb,Step-1,Increment      6: Step Time =,    60.00,"TUBE-1",         20211,   5.87785E-03,   8.09017E-03,       1.53750,NA,NA,"",   10.0285E-03,            0.,       1.53795,   28.4591E-06,   2.98253E+03
C:/ALETube/PressureUpdate/LargeStep/DeformErode/JobErode.odb,Step-1,Increment      6: Step Time =,    60.00,"TUBE-1",         20177,   7.07107E-03,   7.07107E-03,       1.53750,NA,NA,"",   10.0285E-03,            0.,       1.53795,   28.4824E-06,   2.98581E+03
C:/ALETube/PressureUpdate/LargeStep/DeformErode/JobErode.odb,Step-1,Increment      6: Step Time =,    60.00,"TUBE-1",         20375,   5.87785E-03,   8.09017E-03,       1.55000,NA,NA,"",   10.0287E-03,            0.,       1.55044,   28.6904E-06,   3.00672E+03
C:/ALETube/PressureUpdate/LargeStep/DeformErode/JobErode.odb,Step-1,Increment      6: Step Time =,    60.00,"TUBE-1",         20341,   7.07107E-03,   7.07107E-03,       1.55000,NA,NA,"",   10.0287E-03,            0.,       1.55044,   28.7139E-06,   3.01003E+03
C:/ALETube/PressureUpdate/LargeStep/DeformErode/JobErode.odb,Step-1,Increment      6: Step Time =,    60.00,"TUBE-1",         20539,   5.87785E-03,   8.09017E-03,        1.5625,NA,NA,"",   10.0289E-03,            0.,       1.56293,   28.9217E-06,   3.03091E+03
C:/ALETube/PressureUpdate/LargeStep/DeformErode/JobErode.odb,Step-1,Increment      6: Step Time =,    60.00,"TUBE-1",         20505,   7.07107E-03,   7.07107E-03,        1.5625,NA,NA,"",   10.0289E-03,            0.,       1.56293,   28.9453E-06,   3.03424E+03
C:/ALETube/PressureUpdate/LargeStep/DeformErode/JobErode.odb,Step-1,Increment      6: Step Time =,    60.00,"TUBE-1",         20669,   7.07107E-03,   7.07107E-03,       1.57500,NA,NA,"",   10.0292E-03,            0.,       1.57542,   29.1768E-06,   3.05846E+03
C:/ALETube/PressureUpdate/LargeStep/DeformErode/JobErode.odb,Step-1,Increment      6: Step Time =,    60.00,"TUBE-1",         20703,   5.87785E-03,   8.09017E-03,       1.57500,NA,NA,"",   10.0292E-03,            0.,       1.57542,   29.1530E-06,   3.05510E+03
C:/ALETube/PressureUpdate/LargeStep/DeformErode/JobErode.odb,Step-1,Increment      6: Step Time =,    60.00,"TUBE-1",         20867,   5.87785E-03,   8.09017E-03,       1.58750,NA,NA,"",   10.0294E-03,            0.,       1.58791,   29.3843E-06,   3.07929E+03
C:/ALETube/PressureUpdate/LargeStep/DeformErode/JobErode.odb,Step-1,Increment      6: Step Time =,    60.00,"TUBE-1",         20833,   7.07107E-03,   7.07107E-03,       1.58750,NA,NA,"",   10.0294E-03,            0.,       1.58791,   29.4083E-06,   3.08268E+03
C:/ALETube/PressureUpdate/LargeStep/DeformErode/JobErode.odb,Step-1,Increment      6: Step Time =,    60.00,"TUBE-1",         21031,   5.87785E-03,   8.09017E-03,       1.60000,NA,NA,"",   10.0296E-03,  -376.728E-12,       1.60040,   29.6156E-06,   3.10348E+03
C:/ALETube/PressureUpdate/LargeStep/DeformErode/JobErode.odb,Step-1,Increment      6: Step Time =,    60.00,"TUBE-1",         20997,   7.07107E-03,   7.07107E-03,       1.60000,NA,NA,"",   10.0296E-03,            0.,       1.60040,   29.6397E-06,   3.10689E+03
C:/ALETube/PressureUpdate/LargeStep/DeformErode/JobErode.odb,Step-1,Increment      6: Step Time =,    60.00,"TUBE-1",         21195,   5.87785E-03,   8.09017E-03,       1.61250,NA,NA,"",   10.0298E-03,  -867.362E-21,       1.61289,   29.8468E-06,   3.12767E+03
C:/ALETube/PressureUpdate/LargeStep/DeformErode/JobErode.odb,Step-1,Increment      6: Step Time =,    60.00,"TUBE-1",         21161,   7.07107E-03,   7.07107E-03,       1.61250,NA,NA,"",   10.0299E-03,            0.,       1.61289,   29.8712E-06,   3.13110E+03
C:/ALETube/PressureUpdate/LargeStep/DeformErode/JobErode.odb,Step-1,Increment      6: Step Time =,    60.00,"TUBE-1",         21359,   5.87785E-03,   8.09017E-03,         1.625,NA,NA,"",   10.0301E-03,            0.,       1.62537,   30.0781E-06,   3.15185E+03
C:/ALETube/PressureUpdate/LargeStep/DeformErode/JobErode.odb,Step-1,Increment      6: Step Time =,    60.00,"TUBE-1",         21325,   7.07107E-03,   7.07107E-03,         1.625,NA,NA,"",   10.0301E-03,            0.,       1.62537,   30.1027E-06,   3.15531E+03
C:/ALETube/PressureUpdate/LargeStep/DeformErode/JobErode.odb,Step-1,Increment      6: Step Time =,    60.00,"TUBE-1",         21489,   7.07107E-03,   7.07107E-03,       1.63750,NA,NA,"",   10.0303E-03,            0.,       1.63786,   30.3341E-06,   3.17953E+03
C:/ALETube/PressureUpdate/LargeStep/DeformErode/JobErode.odb,Step-1,Increment      6: Step Time =,    60.00,"TUBE-1",         21523,   5.87785E-03,   8.09017E-03,       1.63750,NA,NA,"",   10.0303E-03,            0.,       1.63786,   30.3094E-06,   3.17604E+03
C:/ALETube/PressureUpdate/LargeStep/DeformErode/JobErode.odb,Step-1,Increment      6: Step Time =,    60.00,"TUBE-1",         21687,   5.87785E-03,   8.09017E-03,       1.65000,NA,NA,"",   10.0305E-03,            0.,       1.65035,   30.5406E-06,   3.20022E+03
C:/ALETube/PressureUpdate/LargeStep/DeformErode/JobErode.odb,Step-1,Increment      6: Step Time =,    60.00,"TUBE-1",         21653,   7.07107E-03,   7.07107E-03,       1.65000,NA,NA,"",   10.0306E-03,            0.,       1.65035,   30.5656E-06,   3.20374E+03
C:/ALETube/PressureUpdate/LargeStep/DeformErode/JobErode.odb,Step-1,Increment      6: Step Time =,    60.00,"TUBE-1",         21851,   5.87785E-03,   8.09017E-03,       1.66250,NA,NA,"",   10.0308E-03,   867.362E-21,       1.66284,   30.7719E-06,   3.22440E+03
C:/ALETube/PressureUpdate/LargeStep/DeformErode/JobErode.odb,Step-1,Increment      6: Step Time =,    60.00,"TUBE-1",         21817,   7.07107E-03,   7.07107E-03,       1.66250,NA,NA,"",   10.0308E-03,            0.,       1.66284,   30.7970E-06,   3.22795E+03
C:/ALETube/PressureUpdate/LargeStep/DeformErode/JobErode.odb,Step-1,Increment      6: Step Time =,    60.00,"TUBE-1",         22015,   5.87785E-03,   8.09017E-03,       1.67500,NA,NA,"",   10.0310E-03,            0.,       1.67533,   31.0033E-06,   3.24859E+03
C:/ALETube/PressureUpdate/LargeStep/DeformErode/JobErode.odb,Step-1,Increment      6: Step Time =,    60.00,"TUBE-1",         21981,   7.07107E-03,   7.07107E-03,       1.67500,NA,NA,"",   10.0310E-03,            0.,       1.67533,   31.0286E-06,   3.25216E+03
C:/ALETube/PressureUpdate/LargeStep/DeformErode/JobErode.odb,Step-1,Increment      6: Step Time =,    60.00,"TUBE-1",         22179,   5.87785E-03,   8.09017E-03,        1.6875,NA,NA,"",   10.0312E-03,            0.,       1.68782,   31.2343E-06,   3.27276E+03
C:/ALETube/PressureUpdate/LargeStep/DeformErode/JobErode.odb,Step-1,Increment      6: Step Time =,    60.00,"TUBE-1",         22145,   7.07107E-03,   7.07107E-03,        1.6875,NA,NA,"",   10.0313E-03,            0.,       1.68782,   31.2598E-06,   3.27636E+03
C:/ALETube/PressureUpdate/LargeStep/DeformErode/JobErode.odb,Step-1,Increment      6: Step Time =,    60.00,"TUBE-1",         22309,   7.07107E-03,   7.07107E-03,       1.70000,NA,NA,"",   10.0315E-03,            0.,       1.70031,   31.4909E-06,   3.30052E+03
C:/ALETube/PressureUpdate/LargeStep/DeformErode/JobErode.odb,Step-1,Increment      6: Step Time =,    60.00,"TUBE-1",         22343,   5.87785E-03,   8.09017E-03,       1.70000,NA,NA,"",   10.0315E-03,            0.,       1.70031,   31.4652E-06,   3.29690E+03
C:/ALETube/PressureUpdate/LargeStep/DeformErode/JobErode.odb,Step-1,Increment      6: Step Time =,    60.00,"TUBE-1",         22507,   5.87785E-03,   8.09017E-03,       1.71250,NA,NA,"",   10.0317E-03,            0.,       1.71279,   31.7005E-06,   3.32142E+03
C:/ALETube/PressureUpdate/LargeStep/DeformErode/JobErode.odb,Step-1,Increment      6: Step Time =,    60.00,"TUBE-1",         22473,   7.07107E-03,   7.07107E-03,       1.71250,NA,NA,"",   10.0317E-03,            0.,       1.71279,   31.7264E-06,   3.32507E+03
C:/ALETube/PressureUpdate/LargeStep/DeformErode/JobErode.odb,Step-1,Increment      6: Step Time =,    60.00,"TUBE-1",         22671,   5.87785E-03,   8.09017E-03,       1.72500,NA,NA,"",   10.0319E-03,  -867.362E-21,       1.72528,   31.9213E-06,   3.34439E+03
C:/ALETube/PressureUpdate/LargeStep/DeformErode/JobErode.odb,Step-1,Increment      6: Step Time =,    60.00,"TUBE-1",         22637,   7.07107E-03,   7.07107E-03,       1.72500,NA,NA,"",   10.0319E-03,            0.,       1.72528,   31.9473E-06,   3.34806E+03
C:/ALETube/PressureUpdate/LargeStep/DeformErode/JobErode.odb,Step-1,Increment      6: Step Time =,    60.00,"TUBE-1",         22835,   5.87785E-03,   8.09017E-03,       1.73750,NA,NA,"",   10.0321E-03,            0.,       1.73777,   32.1052E-06,   3.36407E+03
C:/ALETube/PressureUpdate/LargeStep/DeformErode/JobErode.odb,Step-1,Increment      6: Step Time =,    60.00,"TUBE-1",         22801,   7.07107E-03,   7.07107E-03,       1.73750,NA,NA,"",   10.0321E-03,            0.,       1.73777,   32.1314E-06,   3.36777E+03
C:/ALETube/PressureUpdate/LargeStep/DeformErode/JobErode.odb,Step-1,Increment      6: Step Time =,    60.00,"TUBE-1",         22999,   5.87785E-03,   8.09017E-03,          1.75,NA,NA,"",   10.0323E-03,            0.,       1.75026,   32.3397E-06,   3.38833E+03
C:/ALETube/PressureUpdate/LargeStep/DeformErode/JobErode.odb,Step-1,Increment      6: Step Time =,    60.00,"TUBE-1",         22965,   7.07107E-03,   7.07107E-03,          1.75,NA,NA,"",   10.0324E-03,            0.,       1.75026,   32.3661E-06,   3.39206E+03
C:/ALETube/PressureUpdate/LargeStep/DeformErode/JobErode.odb,Step-1,Increment      6: Step Time =,    60.00,"TUBE-1",         23129,   7.07107E-03,   7.07107E-03,       1.76250,NA,NA,"",   10.0326E-03,            0.,       1.76275,   32.6007E-06,   3.41657E+03
C:/ALETube/PressureUpdate/LargeStep/DeformErode/JobErode.odb,Step-1,Increment      6: Step Time =,    60.00,"TUBE-1",         23163,   5.87785E-03,   8.09017E-03,       1.76250,NA,NA,"",   10.0326E-03,            0.,       1.76275,   32.5741E-06,   3.41282E+03
C:/ALETube/PressureUpdate/LargeStep/DeformErode/JobErode.odb,Step-1,Increment      6: Step Time =,    60.00,"TUBE-1",         23327,   5.87785E-03,   8.09017E-03,       1.77500,NA,NA,"",   10.0328E-03,  -867.362E-21,       1.77523,   32.8042E-06,   3.43687E+03
C:/ALETube/PressureUpdate/LargeStep/DeformErode/JobErode.odb,Step-1,Increment      6: Step Time =,    60.00,"TUBE-1",         23293,   7.07107E-03,   7.07107E-03,       1.77500,NA,NA,"",   10.0328E-03,            0.,       1.77523,   32.8309E-06,   3.44064E+03
C:/ALETube/PressureUpdate/LargeStep/DeformErode/JobErode.odb,Step-1,Increment      6: Step Time =,    60.00,"TUBE-1",         23491,   5.87785E-03,   8.09017E-03,       1.78750,NA,NA,"",   10.0330E-03,            0.,       1.78772,   33.0356E-06,   3.46107E+03
C:/ALETube/PressureUpdate/LargeStep/DeformErode/JobErode.odb,Step-1,Increment      6: Step Time =,    60.00,"TUBE-1",         23457,   7.07107E-03,   7.07107E-03,       1.78750,NA,NA,"",   10.0331E-03,            0.,       1.78772,   33.0625E-06,   3.46488E+03
C:/ALETube/PressureUpdate/LargeStep/DeformErode/JobErode.odb,Step-1,Increment      6: Step Time =,    60.00,"TUBE-1",         23655,   5.87785E-03,   8.09017E-03,       1.80000,NA,NA,"",   10.0333E-03,            0.,       1.80021,   33.2669E-06,   3.48525E+03
C:/ALETube/PressureUpdate/LargeStep/DeformErode/JobErode.odb,Step-1,Increment      6: Step Time =,    60.00,"TUBE-1",         23621,   7.07107E-03,   7.07107E-03,       1.80000,NA,NA,"",   10.0333E-03,            0.,       1.80021,   33.2941E-06,   3.48908E+03
C:/ALETube/PressureUpdate/LargeStep/DeformErode/JobErode.odb,Step-1,Increment      6: Step Time =,    60.00,"TUBE-1",         23819,   5.87785E-03,   8.09017E-03,        1.8125,NA,NA,"",   10.0335E-03,            0.,       1.81270,   33.4982E-06,   3.50942E+03
C:/ALETube/PressureUpdate/LargeStep/DeformErode/JobErode.odb,Step-1,Increment      6: Step Time =,    60.00,"TUBE-1",         23785,   7.07107E-03,   7.07107E-03,        1.8125,NA,NA,"",   10.0335E-03,            0.,       1.81270,   33.5255E-06,   3.51328E+03
C:/ALETube/PressureUpdate/LargeStep/DeformErode/JobErode.odb,Step-1,Increment      6: Step Time =,    60.00,"TUBE-1",         23949,   7.07107E-03,   7.07107E-03,       1.82500,NA,NA,"",   10.0338E-03,            0.,       1.82518,   33.7569E-06,   3.53747E+03
C:/ALETube/PressureUpdate/LargeStep/DeformErode/JobErode.odb,Step-1,Increment      6: Step Time =,    60.00,"TUBE-1",         23983,   5.87785E-03,   8.09017E-03,       1.82500,NA,NA,"",   10.0337E-03,            0.,       1.82518,   33.7294E-06,   3.53359E+03
C:/ALETube/PressureUpdate/LargeStep/DeformErode/JobErode.odb,Step-1,Increment      6: Step Time =,    60.00,"TUBE-1",         24147,   5.87785E-03,   8.09017E-03,       1.83750,NA,NA,"",   10.0340E-03,            0.,       1.83767,   33.9607E-06,   3.55777E+03
C:/ALETube/PressureUpdate/LargeStep/DeformErode/JobErode.odb,Step-1,Increment      6: Step Time =,    60.00,"TUBE-1",         24113,   7.07107E-03,   7.07107E-03,       1.83750,NA,NA,"",   10.0340E-03,            0.,       1.83767,   33.9884E-06,   3.56167E+03
C:/ALETube/PressureUpdate/LargeStep/DeformErode/JobErode.odb,Step-1,Increment      6: Step Time =,    60.00,"TUBE-1",         24311,   5.87785E-03,   8.09017E-03,       1.85000,NA,NA,"",   10.0342E-03,            0.,       1.85016,   34.1919E-06,   3.58194E+03
C:/ALETube/PressureUpdate/LargeStep/DeformErode/JobErode.odb,Step-1,Increment      6: Step Time =,    60.00,"TUBE-1",         24277,   7.07107E-03,   7.07107E-03,       1.85000,NA,NA,"",   10.0342E-03,            0.,       1.85016,   34.2198E-06,   3.58587E+03
C:/ALETube/PressureUpdate/LargeStep/DeformErode/JobErode.odb,Step-1,Increment      6: Step Time =,    60.00,"TUBE-1",         24475,   5.87785E-03,   8.09017E-03,       1.86250,NA,NA,"",   10.0344E-03,   867.362E-21,       1.86265,   34.4232E-06,   3.60611E+03
C:/ALETube/PressureUpdate/LargeStep/DeformErode/JobErode.odb,Step-1,Increment      6: Step Time =,    60.00,"TUBE-1",         24441,   7.07107E-03,   7.07107E-03,       1.86250,NA,NA,"",   10.0345E-03,            0.,       1.86265,   34.4512E-06,   3.61006E+03
C:/ALETube/PressureUpdate/LargeStep/DeformErode/JobErode.odb,Step-1,Increment      6: Step Time =,    60.00,"TUBE-1",         24639,   5.87785E-03,   8.09017E-03,         1.875,NA,NA,"",   10.0347E-03,  -867.362E-21,       1.87513,   34.6544E-06,   3.63027E+03
C:/ALETube/PressureUpdate/LargeStep/DeformErode/JobErode.odb,Step-1,Increment      6: Step Time =,    60.00,"TUBE-1",         24605,   7.07107E-03,   7.07107E-03,         1.875,NA,NA,"",   10.0347E-03,            0.,       1.87513,   34.6827E-06,   3.63426E+03
C:/ALETube/PressureUpdate/LargeStep/DeformErode/JobErode.odb,Step-1,Increment      6: Step Time =,    60.00,"TUBE-1",         24769,   7.07107E-03,   7.07107E-03,       1.88750,NA,NA,"",   10.0349E-03,            0.,       1.88762,   34.9141E-06,   3.65845E+03
C:/ALETube/PressureUpdate/LargeStep/DeformErode/JobErode.odb,Step-1,Increment      6: Step Time =,    60.00,"TUBE-1",         24803,   5.87785E-03,   8.09017E-03,       1.88750,NA,NA,"",   10.0349E-03,  -867.362E-21,       1.88762,   34.8857E-06,   3.65444E+03
C:/ALETube/PressureUpdate/LargeStep/DeformErode/JobErode.odb,Step-1,Increment      6: Step Time =,    60.00,"TUBE-1",         24967,   5.87785E-03,   8.09017E-03,       1.90000,NA,NA,"",   10.0351E-03,  -867.362E-21,       1.90011,   35.1169E-06,   3.67861E+03
C:/ALETube/PressureUpdate/LargeStep/DeformErode/JobErode.odb,Step-1,Increment      6: Step Time =,    60.00,"TUBE-1",         24933,   7.07107E-03,   7.07107E-03,       1.90000,NA,NA,"",   10.0351E-03,            0.,       1.90011,   35.1456E-06,   3.68265E+03
C:/ALETube/PressureUpdate/LargeStep/DeformErode/JobErode.odb,Step-1,Increment      6: Step Time =,    60.00,"TUBE-1",         25131,   5.87785E-03,   8.09017E-03,       1.91250,NA,NA,"",   10.0353E-03,            0.,       1.91259,   35.3482E-06,   3.70277E+03
C:/ALETube/PressureUpdate/LargeStep/DeformErode/JobErode.odb,Step-1,Increment      6: Step Time =,    60.00,"TUBE-1",         25097,   7.07107E-03,   7.07107E-03,       1.91250,NA,NA,"",   10.0354E-03,            0.,       1.91259,   35.3770E-06,   3.70684E+03
C:/ALETube/PressureUpdate/LargeStep/DeformErode/JobErode.odb,Step-1,Increment      6: Step Time =,    60.00,"TUBE-1",         25295,   5.87785E-03,   8.09017E-03,       1.92500,NA,NA,"",   10.0356E-03,            0.,       1.92508,   35.5794E-06,   3.72694E+03
C:/ALETube/PressureUpdate/LargeStep/DeformErode/JobErode.odb,Step-1,Increment      6: Step Time =,    60.00,"TUBE-1",         25261,   7.07107E-03,   7.07107E-03,       1.92500,NA,NA,"",   10.0356E-03,            0.,       1.92508,   35.6084E-06,   3.73103E+03
C:/ALETube/PressureUpdate/LargeStep/DeformErode/JobErode.odb,Step-1,Increment      6: Step Time =,    60.00,"TUBE-1",         25459,   5.87785E-03,   8.09017E-03,        1.9375,NA,NA,"",   10.0358E-03,  -867.362E-21,       1.93757,   35.8105E-06,   3.75109E+03
C:/ALETube/PressureUpdate/LargeStep/DeformErode/JobErode.odb,Step-1,Increment      6: Step Time =,    60.00,"TUBE-1",         25425,   7.07107E-03,   7.07107E-03,        1.9375,NA,NA,"",   10.0358E-03,            0.,       1.93757,   35.8397E-06,   3.75521E+03
C:/ALETube/PressureUpdate/LargeStep/DeformErode/JobErode.odb,Step-1,Increment      6: Step Time =,    60.00,"TUBE-1",         25589,   7.07107E-03,   7.07107E-03,       1.95000,NA,NA,"",   10.0361E-03,            0.,       1.95005,   36.0719E-06,   3.77945E+03
C:/ALETube/PressureUpdate/LargeStep/DeformErode/JobErode.odb,Step-1,Increment      6: Step Time =,    60.00,"TUBE-1",         25623,   5.87785E-03,   8.09017E-03,       1.95000,NA,NA,"",   10.0360E-03,            0.,       1.95005,   36.0425E-06,   3.77530E+03
C:/ALETube/PressureUpdate/LargeStep/DeformErode/JobErode.odb,Step-1,Increment      6: Step Time =,    60.00,"TUBE-1",         25787,   5.87785E-03,   8.09017E-03,       1.96250,NA,NA,"",   10.0363E-03,            0.,       1.96254,   36.2717E-06,   3.79933E+03
C:/ALETube/PressureUpdate/LargeStep/DeformErode/JobErode.odb,Step-1,Increment      6: Step Time =,    60.00,"TUBE-1",         25753,   7.07107E-03,   7.07107E-03,       1.96250,NA,NA,"",   10.0363E-03,            0.,       1.96254,   36.3012E-06,   3.80348E+03
C:/ALETube/PressureUpdate/LargeStep/DeformErode/JobErode.odb,Step-1,Increment      6: Step Time =,    60.00,"TUBE-1",         25951,   5.87785E-03,   8.09017E-03,       1.97500,NA,NA,"",   10.0365E-03,            0.,       1.97503,   36.5027E-06,   3.82336E+03
C:/ALETube/PressureUpdate/LargeStep/DeformErode/JobErode.odb,Step-1,Increment      6: Step Time =,    60.00,"TUBE-1",         25917,   7.07107E-03,   7.07107E-03,       1.97500,NA,NA,"",   10.0365E-03,            0.,       1.97503,   36.5323E-06,   3.82756E+03
C:/ALETube/PressureUpdate/LargeStep/DeformErode/JobErode.odb,Step-1,Increment      6: Step Time =,    60.00,"TUBE-1",         26115,   5.87785E-03,   8.09017E-03,       1.98750,NA,NA,"",   10.0368E-03,  -867.362E-21,       1.98751,   36.7545E-06,   3.84917E+03
C:/ALETube/PressureUpdate/LargeStep/DeformErode/JobErode.odb,Step-1,Increment      6: Step Time =,    60.00,"TUBE-1",         26081,   7.07107E-03,   7.07107E-03,       1.98750,NA,NA,"",   10.0368E-03,            0.,       1.98751,   36.7857E-06,   3.85350E+03
C:/ALETube/PressureUpdate/LargeStep/DeformErode/JobErode.odb,Step-1,Increment      6: Step Time =,    60.00,"TUBE-1",         26279,   5.87785E-03,   8.09017E-03,            2.,NA,NA,"",   10.0369E-03,  -867.362E-21,            2.,   36.9011E-06,   3.86024E+03
C:/ALETube/PressureUpdate/LargeStep/DeformErode/JobErode.odb,Step-1,Increment      6: Step Time =,    60.00,"TUBE-1",         26245,   7.07107E-03,   7.07107E-03,            2.,NA,NA,"",   10.0369E-03,            0.,            2.,   36.9273E-06,   3.86635E+03
C:/ALETube/PressureUpdate/LargeStep/DeformErode/JobErode.odb,Step-1,Increment      7: Step Time =,    70.00,"TUBE-1",            39,   5.87785E-03,   8.09017E-03,            0.,NA,NA,"",   9.99990E-03,            0.,   1.36652E-03,  -98.0983E-09,       6.43227
C:/ALETube/PressureUpdate/LargeStep/DeformErode/JobErode.odb,Step-1,Increment      7: Step Time =,    70.00,"TUBE-1",             5,   7.07107E-03,   7.07107E-03,            0.,NA,NA,"",   9.99990E-03,            0.,   1.36652E-03,  -97.7923E-09,       6.42991
C:/ALETube/PressureUpdate/LargeStep/DeformErode/JobErode.odb,Step-1,Increment      7: Step Time =,    70.00,"TUBE-1",           203,   5.87785E-03,   8.09017E-03,   12.5000E-03,NA,NA,"",   10.0003E-03,            0.,   13.8703E-03,   309.031E-09,       30.6060
C:/ALETube/PressureUpdate/LargeStep/DeformErode/JobErode.odb,Step-1,Increment      7: Step Time =,    70.00,"TUBE-1",           169,   7.07107E-03,   7.07107E-03,   12.5000E-03,NA,NA,"",   10.0003E-03,            0.,   13.8689E-03,   309.392E-09,       30.6471
C:/ALETube/PressureUpdate/LargeStep/DeformErode/JobErode.odb,Step-1,Increment      7: Step Time =,    70.00,"TUBE-1",           333,   7.07107E-03,   7.07107E-03,   25.0000E-03,NA,NA,"",   10.0006E-03,            0.,   26.3665E-03,   566.952E-09,       60.5090
C:/ALETube/PressureUpdate/LargeStep/DeformErode/JobErode.odb,Step-1,Increment      7: Step Time =,    70.00,"TUBE-1",           367,   5.87785E-03,   8.09017E-03,   25.0000E-03,NA,NA,"",   10.0006E-03,  -867.362E-21,   26.3665E-03,   566.243E-09,       60.4231
C:/ALETube/PressureUpdate/LargeStep/DeformErode/JobErode.odb,Step-1,Increment      7: Step Time =,    70.00,"TUBE-1",           531,   5.87785E-03,   8.09017E-03,   37.5000E-03,NA,NA,"",   10.0009E-03,   867.362E-21,   38.8661E-03,   856.739E-09,       89.6478
C:/ALETube/PressureUpdate/LargeStep/DeformErode/JobErode.odb,Step-1,Increment      7: Step Time =,    70.00,"TUBE-1",           497,   7.07107E-03,   7.07107E-03,   37.5000E-03,NA,NA,"",   10.0009E-03,            0.,   38.8661E-03,   857.817E-09,       89.7799
C:/ALETube/PressureUpdate/LargeStep/DeformErode/JobErode.odb,Step-1,Increment      7: Step Time =,    70.00,"TUBE-1",           695,   5.87785E-03,   8.09017E-03,   50.0000E-03,NA,NA,"",   10.0011E-03,  -867.362E-21,   51.3657E-03,   1.14212E-06,       120.146
C:/ALETube/PressureUpdate/LargeStep/DeformErode/JobErode.odb,Step-1,Increment      7: Step Time =,    70.00,"TUBE-1",           661,   7.07107E-03,   7.07107E-03,   50.0000E-03,NA,NA,"",   10.0011E-03,            0.,   51.3657E-03,   1.14356E-06,       120.322
C:/ALETube/PressureUpdate/LargeStep/DeformErode/JobErode.odb,Step-1,Increment      7: Step Time =,    70.00,"TUBE-1",           825,   7.07107E-03,   7.07107E-03,      62.5E-03,NA,NA,"",   10.0014E-03,            0.,   63.8652E-03,   1.43130E-06,       150.252
C:/ALETube/PressureUpdate/LargeStep/DeformErode/JobErode.odb,Step-1,Increment      7: Step Time =,    70.00,"TUBE-1",           859,   5.87785E-03,   8.09017E-03,      62.5E-03,NA,NA,"",   10.0014E-03,  -867.362E-21,   63.8652E-03,   1.42950E-06,       150.032
C:/ALETube/PressureUpdate/LargeStep/DeformErode/JobErode.odb,Step-1,Increment      7: Step Time =,    70.00,"TUBE-1",          1023,   5.87785E-03,   8.09017E-03,   75.0000E-03,NA,NA,"",   10.0017E-03,            0.,   76.3646E-03,   1.71527E-06,       180.161
C:/ALETube/PressureUpdate/LargeStep/DeformErode/JobErode.odb,Step-1,Increment      7: Step Time =,    70.00,"TUBE-1",           989,   7.07107E-03,   7.07107E-03,   75.0000E-03,NA,NA,"",   10.0017E-03,            0.,   76.3646E-03,   1.71742E-06,       180.424
C:/ALETube/PressureUpdate/LargeStep/DeformErode/JobErode.odb,Step-1,Increment      7: Step Time =,    70.00,"TUBE-1",          1187,   5.87785E-03,   8.09017E-03,   87.5000E-03,NA,NA,"",   10.0020E-03,  -867.362E-21,   88.8639E-03,   2.00198E-06,       210.191
C:/ALETube/PressureUpdate/LargeStep/DeformErode/JobErode.odb,Step-1,Increment      7: Step Time =,    70.00,"TUBE-1",          1153,   7.07107E-03,   7.07107E-03,   87.5000E-03,NA,NA,"",   10.0020E-03,            0.,   88.8639E-03,   2.00450E-06,       210.498
C:/ALETube/PressureUpdate/LargeStep/DeformErode/JobErode.odb,Step-1,Increment      7: Step Time =,    70.00,"TUBE-1",          1351,   5.87785E-03,   8.09017E-03,   100.000E-03,NA,NA,"",   10.0023E-03,   867.362E-21,   101.363E-03,   2.28824E-06,       240.266
C:/ALETube/PressureUpdate/LargeStep/DeformErode/JobErode.odb,Step-1,Increment      7: Step Time =,    70.00,"TUBE-1",          1317,   7.07107E-03,   7.07107E-03,   100.000E-03,NA,NA,"",   10.0023E-03,            0.,   101.363E-03,   2.29111E-06,       240.617
C:/ALETube/PressureUpdate/LargeStep/DeformErode/JobErode.odb,Step-1,Increment      7: Step Time =,    70.00,"TUBE-1",          1515,   5.87785E-03,   8.09017E-03,   112.500E-03,NA,NA,"",   10.0026E-03,            0.,   113.862E-03,   2.57468E-06,       270.317
C:/ALETube/PressureUpdate/LargeStep/DeformErode/JobErode.odb,Step-1,Increment      7: Step Time =,    70.00,"TUBE-1",          1481,   7.07107E-03,   7.07107E-03,   112.500E-03,NA,NA,"",   10.0026E-03,            0.,   113.862E-03,   2.57791E-06,       270.712
C:/ALETube/PressureUpdate/LargeStep/DeformErode/JobErode.odb,Step-1,Increment      7: Step Time =,    70.00,"TUBE-1",          1645,   7.07107E-03,   7.07107E-03,      125.E-03,NA,NA,"",   10.0029E-03,            0.,   126.361E-03,   2.86462E-06,       300.816
C:/ALETube/PressureUpdate/LargeStep/DeformErode/JobErode.odb,Step-1,Increment      7: Step Time =,    70.00,"TUBE-1",          1679,   5.87785E-03,   8.09017E-03,      125.E-03,NA,NA,"",   10.0029E-03,            0.,   126.361E-03,   2.86103E-06,       300.377
C:/ALETube/PressureUpdate/LargeStep/DeformErode/JobErode.odb,Step-1,Increment      7: Step Time =,    70.00,"TUBE-1",          1843,   5.87785E-03,   8.09017E-03,   137.500E-03,NA,NA,"",   10.0031E-03,            0.,   138.860E-03,   3.14741E-06,       330.431
C:/ALETube/PressureUpdate/LargeStep/DeformErode/JobErode.odb,Step-1,Increment      7: Step Time =,    70.00,"TUBE-1",          1809,   7.07107E-03,   7.07107E-03,   137.500E-03,NA,NA,"",   10.0032E-03,            0.,   138.860E-03,   3.15136E-06,       330.914
C:/ALETube/PressureUpdate/LargeStep/DeformErode/JobErode.odb,Step-1,Increment      7: Step Time =,    70.00,"TUBE-1",          2007,   5.87785E-03,   8.09017E-03,   150.000E-03,NA,NA,"",   10.0034E-03,   867.362E-21,   151.359E-03,   3.43376E-06,       360.485
C:/ALETube/PressureUpdate/LargeStep/DeformErode/JobErode.odb,Step-1,Increment      7: Step Time =,    70.00,"TUBE-1",          1973,   7.07107E-03,   7.07107E-03,   150.000E-03,NA,NA,"",   10.0034E-03,            0.,   151.359E-03,   3.43807E-06,       361.012
C:/ALETube/PressureUpdate/LargeStep/DeformErode/JobErode.odb,Step-1,Increment      7: Step Time =,    70.00,"TUBE-1",          2171,   5.87785E-03,   8.09017E-03,   162.500E-03,NA,NA,"",   10.0037E-03,            0.,   163.857E-03,   3.72011E-06,       390.536
C:/ALETube/PressureUpdate/LargeStep/DeformErode/JobErode.odb,Step-1,Increment      7: Step Time =,    70.00,"TUBE-1",          2137,   7.07107E-03,   7.07107E-03,   162.500E-03,NA,NA,"",   10.0037E-03,            0.,   163.857E-03,   3.72478E-06,       391.107
C:/ALETube/PressureUpdate/LargeStep/DeformErode/JobErode.odb,Step-1,Increment      7: Step Time =,    70.00,"TUBE-1",          2335,   5.87785E-03,   8.09017E-03,   175.000E-03,NA,NA,"",   10.0040E-03,            0.,   176.356E-03,   4.00645E-06,       420.586
C:/ALETube/PressureUpdate/LargeStep/DeformErode/JobErode.odb,Step-1,Increment      7: Step Time =,    70.00,"TUBE-1",          2301,   7.07107E-03,   7.07107E-03,   175.000E-03,NA,NA,"",   10.0040E-03,            0.,   176.356E-03,   4.01148E-06,       421.200
C:/ALETube/PressureUpdate/LargeStep/DeformErode/JobErode.odb,Step-1,Increment      7: Step Time =,    70.00,"TUBE-1",          2465,   7.07107E-03,   7.07107E-03,     187.5E-03,NA,NA,"",   10.0043E-03,            0.,   188.854E-03,   4.29817E-06,       451.292
C:/ALETube/PressureUpdate/LargeStep/DeformErode/JobErode.odb,Step-1,Increment      7: Step Time =,    70.00,"TUBE-1",          2499,   5.87785E-03,   8.09017E-03,     187.5E-03,NA,NA,"",   10.0043E-03,   867.362E-21,   188.854E-03,   4.29278E-06,       450.634
C:/ALETube/PressureUpdate/LargeStep/DeformErode/JobErode.odb,Step-1,Increment      7: Step Time =,    70.00,"TUBE-1",          2663,   5.87785E-03,   8.09017E-03,   200.000E-03,NA,NA,"",   10.0046E-03,  -867.362E-21,   201.353E-03,   4.57911E-06,       480.679
C:/ALETube/PressureUpdate/LargeStep/DeformErode/JobErode.odb,Step-1,Increment      7: Step Time =,    70.00,"TUBE-1",          2629,   7.07107E-03,   7.07107E-03,   200.000E-03,NA,NA,"",   10.0046E-03,            0.,   201.353E-03,   4.58485E-06,       481.381
C:/ALETube/PressureUpdate/LargeStep/DeformErode/JobErode.odb,Step-1,Increment      7: Step Time =,    70.00,"TUBE-1",          2827,   5.87785E-03,   8.09017E-03,   212.500E-03,NA,NA,"",   10.0049E-03,  -867.362E-21,   213.851E-03,   4.86542E-06,       510.723
C:/ALETube/PressureUpdate/LargeStep/DeformErode/JobErode.odb,Step-1,Increment      7: Step Time =,    70.00,"TUBE-1",          2793,   7.07107E-03,   7.07107E-03,   212.500E-03,NA,NA,"",   10.0049E-03,            0.,   213.851E-03,   4.87152E-06,       511.469
C:/ALETube/PressureUpdate/LargeStep/DeformErode/JobErode.odb,Step-1,Increment      7: Step Time =,    70.00,"TUBE-1",          2991,   5.87785E-03,   8.09017E-03,   225.000E-03,NA,NA,"",   10.0052E-03,            0.,   226.349E-03,   5.15173E-06,       540.765
C:/ALETube/PressureUpdate/LargeStep/DeformErode/JobErode.odb,Step-1,Increment      7: Step Time =,    70.00,"TUBE-1",          2957,   7.07107E-03,   7.07107E-03,   225.000E-03,NA,NA,"",   10.0052E-03,            0.,   226.349E-03,   5.15819E-06,       541.554
C:/ALETube/PressureUpdate/LargeStep/DeformErode/JobErode.odb,Step-1,Increment      7: Step Time =,    70.00,"TUBE-1",          3155,   5.87785E-03,   8.09017E-03,   237.500E-03,NA,NA,"",   10.0054E-03,            0.,   238.847E-03,   5.43802E-06,       570.805
C:/ALETube/PressureUpdate/LargeStep/DeformErode/JobErode.odb,Step-1,Increment      7: Step Time =,    70.00,"TUBE-1",          3121,   7.07107E-03,   7.07107E-03,   237.500E-03,NA,NA,"",   10.0054E-03,            0.,   238.847E-03,   5.44484E-06,       571.638
C:/ALETube/PressureUpdate/LargeStep/DeformErode/JobErode.odb,Step-1,Increment      7: Step Time =,    70.00,"TUBE-1",          3285,   7.07107E-03,   7.07107E-03,      250.E-03,NA,NA,"",   10.0057E-03,            0.,   251.345E-03,   5.73149E-06,       601.719
C:/ALETube/PressureUpdate/LargeStep/DeformErode/JobErode.odb,Step-1,Increment      7: Step Time =,    70.00,"TUBE-1",          3319,   5.87785E-03,   8.09017E-03,      250.E-03,NA,NA,"",   10.0057E-03,            0.,   251.345E-03,   5.72431E-06,       600.842
C:/ALETube/PressureUpdate/LargeStep/DeformErode/JobErode.odb,Step-1,Increment      7: Step Time =,    70.00,"TUBE-1",          3483,   5.87785E-03,   8.09017E-03,   262.500E-03,NA,NA,"",   10.0060E-03,  -867.362E-21,   263.843E-03,   6.01059E-06,       630.878
C:/ALETube/PressureUpdate/LargeStep/DeformErode/JobErode.odb,Step-1,Increment      7: Step Time =,    70.00,"TUBE-1",          3449,   7.07107E-03,   7.07107E-03,   262.500E-03,NA,NA,"",   10.0060E-03,            0.,   263.843E-03,   6.01813E-06,       631.799
C:/ALETube/PressureUpdate/LargeStep/DeformErode/JobErode.odb,Step-1,Increment      7: Step Time =,    70.00,"TUBE-1",          3647,   5.87785E-03,   8.09017E-03,   275.000E-03,NA,NA,"",   10.0063E-03,  -867.362E-21,   276.340E-03,   6.29687E-06,       660.912
C:/ALETube/PressureUpdate/LargeStep/DeformErode/JobErode.odb,Step-1,Increment      7: Step Time =,    70.00,"TUBE-1",          3613,   7.07107E-03,   7.07107E-03,   275.000E-03,NA,NA,"",   10.0063E-03,            0.,   276.340E-03,   6.30476E-06,       661.876
C:/ALETube/PressureUpdate/LargeStep/DeformErode/JobErode.odb,Step-1,Increment      7: Step Time =,    70.00,"TUBE-1",          3811,   5.87785E-03,   8.09017E-03,   287.500E-03,NA,NA,"",   10.0066E-03,            0.,   288.838E-03,   6.58313E-06,       690.943
C:/ALETube/PressureUpdate/LargeStep/DeformErode/JobErode.odb,Step-1,Increment      7: Step Time =,    70.00,"TUBE-1",          3777,   7.07107E-03,   7.07107E-03,   287.500E-03,NA,NA,"",   10.0066E-03,            0.,   288.838E-03,   6.59138E-06,       691.952
C:/ALETube/PressureUpdate/LargeStep/DeformErode/JobErode.odb,Step-1,Increment      7: Step Time =,    70.00,"TUBE-1",          3975,   5.87785E-03,   8.09017E-03,   300.000E-03,NA,NA,"",   10.0069E-03,            0.,   301.335E-03,   6.86938E-06,       720.973
C:/ALETube/PressureUpdate/LargeStep/DeformErode/JobErode.odb,Step-1,Increment      7: Step Time =,    70.00,"TUBE-1",          3941,   7.07107E-03,   7.07107E-03,   300.000E-03,NA,NA,"",   10.0069E-03,            0.,   301.335E-03,   6.87799E-06,       722.025
C:/ALETube/PressureUpdate/LargeStep/DeformErode/JobErode.odb,Step-1,Increment      7: Step Time =,    70.00,"TUBE-1",          4105,   7.07107E-03,   7.07107E-03,     312.5E-03,NA,NA,"",   10.0072E-03,            0.,   313.833E-03,   7.16460E-06,       752.096
C:/ALETube/PressureUpdate/LargeStep/DeformErode/JobErode.odb,Step-1,Increment      7: Step Time =,    70.00,"TUBE-1",          4139,   5.87785E-03,   8.09017E-03,     312.5E-03,NA,NA,"",   10.0072E-03,            0.,   313.833E-03,   7.15563E-06,       751.001
C:/ALETube/PressureUpdate/LargeStep/DeformErode/JobErode.odb,Step-1,Increment      7: Step Time =,    70.00,"TUBE-1",          4303,   5.87785E-03,   8.09017E-03,   325.000E-03,NA,NA,"",   10.0074E-03,            0.,   326.330E-03,   7.44187E-06,       781.026
C:/ALETube/PressureUpdate/LargeStep/DeformErode/JobErode.odb,Step-1,Increment      7: Step Time =,    70.00,"TUBE-1",          4269,   7.07107E-03,   7.07107E-03,   325.000E-03,NA,NA,"",   10.0075E-03,            0.,   326.330E-03,   7.45119E-06,       782.166
C:/ALETube/PressureUpdate/LargeStep/DeformErode/JobErode.odb,Step-1,Increment      7: Step Time =,    70.00,"TUBE-1",          4467,   5.87785E-03,   8.09017E-03,   337.500E-03,NA,NA,"",   10.0077E-03,  -867.362E-21,   338.827E-03,   7.72810E-06,       811.050
C:/ALETube/PressureUpdate/LargeStep/DeformErode/JobErode.odb,Step-1,Increment      7: Step Time =,    70.00,"TUBE-1",          4433,   7.07107E-03,   7.07107E-03,   337.500E-03,NA,NA,"",   10.0077E-03,            0.,   338.827E-03,   7.73778E-06,       812.233
C:/ALETube/PressureUpdate/LargeStep/DeformErode/JobErode.odb,Step-1,Increment      7: Step Time =,    70.00,"TUBE-1",          4631,   5.87785E-03,   8.09017E-03,   350.000E-03,NA,NA,"",   10.0080E-03,            0.,   351.324E-03,   8.01432E-06,       841.071
C:/ALETube/PressureUpdate/LargeStep/DeformErode/JobErode.odb,Step-1,Increment      7: Step Time =,    70.00,"TUBE-1",          4597,   7.07107E-03,   7.07107E-03,   350.000E-03,NA,NA,"",   10.0080E-03,            0.,   351.324E-03,   8.02436E-06,       842.298
C:/ALETube/PressureUpdate/LargeStep/DeformErode/JobErode.odb,Step-1,Increment      7: Step Time =,    70.00,"TUBE-1",          4795,   5.87785E-03,   8.09017E-03,   362.500E-03,NA,NA,"",   10.0083E-03,            0.,   363.821E-03,   8.30053E-06,       871.091
C:/ALETube/PressureUpdate/LargeStep/DeformErode/JobErode.odb,Step-1,Increment      7: Step Time =,    70.00,"TUBE-1",          4761,   7.07107E-03,   7.07107E-03,   362.500E-03,NA,NA,"",   10.0083E-03,            0.,   363.821E-03,   8.31093E-06,       872.361
C:/ALETube/PressureUpdate/LargeStep/DeformErode/JobErode.odb,Step-1,Increment      7: Step Time =,    70.00,"TUBE-1",          4925,   7.07107E-03,   7.07107E-03,      375.E-03,NA,NA,"",   10.0086E-03,            0.,   376.318E-03,   8.59749E-06,       902.422
C:/ALETube/PressureUpdate/LargeStep/DeformErode/JobErode.odb,Step-1,Increment      7: Step Time =,    70.00,"TUBE-1",          4959,   5.87785E-03,   8.09017E-03,      375.E-03,NA,NA,"",   10.0086E-03,            0.,   376.318E-03,   8.58673E-06,       901.108
C:/ALETube/PressureUpdate/LargeStep/DeformErode/JobErode.odb,Step-1,Increment      7: Step Time =,    70.00,"TUBE-1",          5123,   5.87785E-03,   8.09017E-03,   387.500E-03,NA,NA,"",   10.0089E-03,            0.,   388.815E-03,   8.87293E-06,       931.124
C:/ALETube/PressureUpdate/LargeStep/DeformErode/JobErode.odb,Step-1,Increment      7: Step Time =,    70.00,"TUBE-1",          5089,   7.07107E-03,   7.07107E-03,   387.500E-03,NA,NA,"",   10.0089E-03,            0.,   388.815E-03,   8.88404E-06,       932.481
C:/ALETube/PressureUpdate/LargeStep/DeformErode/JobErode.odb,Step-1,Increment      7: Step Time =,    70.00,"TUBE-1",          5287,   5.87785E-03,   8.09017E-03,   400.000E-03,NA,NA,"",   10.0092E-03,   867.362E-21,   401.311E-03,   9.15911E-06,       961.137
C:/ALETube/PressureUpdate/LargeStep/DeformErode/JobErode.odb,Step-1,Increment      7: Step Time =,    70.00,"TUBE-1",          5253,   7.07107E-03,   7.07107E-03,   400.000E-03,NA,NA,"",   10.0092E-03,            0.,   401.311E-03,   9.17058E-06,       962.538
C:/ALETube/PressureUpdate/LargeStep/DeformErode/JobErode.odb,Step-1,Increment      7: Step Time =,    70.00,"TUBE-1",          5451,   5.87785E-03,   8.09017E-03,   412.500E-03,NA,NA,"",   10.0094E-03,            0.,   413.808E-03,   9.44529E-06,       991.148
C:/ALETube/PressureUpdate/LargeStep/DeformErode/JobErode.odb,Step-1,Increment      7: Step Time =,    70.00,"TUBE-1",          5417,   7.07107E-03,   7.07107E-03,   412.500E-03,NA,NA,"",   10.0095E-03,            0.,   413.808E-03,   9.45712E-06,       992.593
C:/ALETube/PressureUpdate/LargeStep/DeformErode/JobErode.odb,Step-1,Increment      7: Step Time =,    70.00,"TUBE-1",          5615,   5.87785E-03,   8.09017E-03,   425.000E-03,NA,NA,"",   10.0097E-03,            0.,   426.304E-03,   9.73146E-06,   1.02116E+03
C:/ALETube/PressureUpdate/LargeStep/DeformErode/JobErode.odb,Step-1,Increment      7: Step Time =,    70.00,"TUBE-1",          5581,   7.07107E-03,   7.07107E-03,   425.000E-03,NA,NA,"",   10.0097E-03,            0.,   426.304E-03,   9.74364E-06,   1.02265E+03
C:/ALETube/PressureUpdate/LargeStep/DeformErode/JobErode.odb,Step-1,Increment      7: Step Time =,    70.00,"TUBE-1",          5745,   7.07107E-03,   7.07107E-03,     437.5E-03,NA,NA,"",   10.0100E-03,            0.,   438.800E-03,   10.0302E-06,   1.05270E+03
C:/ALETube/PressureUpdate/LargeStep/DeformErode/JobErode.odb,Step-1,Increment      7: Step Time =,    70.00,"TUBE-1",          5779,   5.87785E-03,   8.09017E-03,     437.5E-03,NA,NA,"",   10.0100E-03,            0.,   438.800E-03,   10.0176E-06,   1.05116E+03
C:/ALETube/PressureUpdate/LargeStep/DeformErode/JobErode.odb,Step-1,Increment      7: Step Time =,    70.00,"TUBE-1",          5943,   5.87785E-03,   8.09017E-03,   450.000E-03,NA,NA,"",   10.0103E-03,  -867.362E-21,   451.297E-03,   10.3038E-06,   1.08117E+03
C:/ALETube/PressureUpdate/LargeStep/DeformErode/JobErode.odb,Step-1,Increment      7: Step Time =,    70.00,"TUBE-1",          5909,   7.07107E-03,   7.07107E-03,   450.000E-03,NA,NA,"",   10.0103E-03,            0.,   451.297E-03,   10.3167E-06,   1.08275E+03
C:/ALETube/PressureUpdate/LargeStep/DeformErode/JobErode.odb,Step-1,Increment      7: Step Time =,    70.00,"TUBE-1",          6107,   5.87785E-03,   8.09017E-03,   462.500E-03,NA,NA,"",   10.0106E-03,            0.,   463.793E-03,   10.5899E-06,   1.11117E+03
C:/ALETube/PressureUpdate/LargeStep/DeformErode/JobErode.odb,Step-1,Increment      7: Step Time =,    70.00,"TUBE-1",          6073,   7.07107E-03,   7.07107E-03,   462.500E-03,NA,NA,"",   10.0106E-03,            0.,   463.793E-03,   10.6032E-06,   1.11279E+03
C:/ALETube/PressureUpdate/LargeStep/DeformErode/JobErode.odb,Step-1,Increment      7: Step Time =,    70.00,"TUBE-1",          6271,   5.87785E-03,   8.09017E-03,   475.000E-03,NA,NA,"",   10.0109E-03,  -867.362E-21,   476.289E-03,   10.8760E-06,   1.14117E+03
C:/ALETube/PressureUpdate/LargeStep/DeformErode/JobErode.odb,Step-1,Increment      7: Step Time =,    70.00,"TUBE-1",          6237,   7.07107E-03,   7.07107E-03,   475.000E-03,NA,NA,"",   10.0109E-03,            0.,   476.289E-03,   10.8897E-06,   1.14284E+03
C:/ALETube/PressureUpdate/LargeStep/DeformErode/JobErode.odb,Step-1,Increment      7: Step Time =,    70.00,"TUBE-1",          6435,   5.87785E-03,   8.09017E-03,   487.500E-03,NA,NA,"",   10.0112E-03,            0.,   488.785E-03,   11.1622E-06,   1.17117E+03
C:/ALETube/PressureUpdate/LargeStep/DeformErode/JobErode.odb,Step-1,Increment      7: Step Time =,    70.00,"TUBE-1",          6401,   7.07107E-03,   7.07107E-03,   487.500E-03,NA,NA,"",   10.0112E-03,            0.,   488.785E-03,   11.1761E-06,   1.17288E+03
C:/ALETube/PressureUpdate/LargeStep/DeformErode/JobErode.odb,Step-1,Increment      7: Step Time =,    70.00,"TUBE-1",          6565,   7.07107E-03,   7.07107E-03,      500.E-03,NA,NA,"",   10.0115E-03,            0.,   501.280E-03,   11.4626E-06,   1.20292E+03
C:/ALETube/PressureUpdate/LargeStep/DeformErode/JobErode.odb,Step-1,Increment      7: Step Time =,    70.00,"TUBE-1",          6599,   5.87785E-03,   8.09017E-03,      500.E-03,NA,NA,"",   10.0114E-03,            0.,   501.280E-03,   11.4483E-06,   1.20117E+03
C:/ALETube/PressureUpdate/LargeStep/DeformErode/JobErode.odb,Step-1,Increment      7: Step Time =,    70.00,"TUBE-1",          6763,   5.87785E-03,   8.09017E-03,   512.500E-03,NA,NA,"",   10.0117E-03,            0.,   513.776E-03,   11.7344E-06,   1.23116E+03
C:/ALETube/PressureUpdate/LargeStep/DeformErode/JobErode.odb,Step-1,Increment      7: Step Time =,    70.00,"TUBE-1",          6729,   7.07107E-03,   7.07107E-03,   512.500E-03,NA,NA,"",   10.0117E-03,            0.,   513.776E-03,   11.7491E-06,   1.23296E+03
C:/ALETube/PressureUpdate/LargeStep/DeformErode/JobErode.odb,Step-1,Increment      7: Step Time =,    70.00,"TUBE-1",          6927,   5.87785E-03,   8.09017E-03,   525.000E-03,NA,NA,"",   10.0120E-03,            0.,   526.271E-03,   12.0205E-06,   1.26116E+03
C:/ALETube/PressureUpdate/LargeStep/DeformErode/JobErode.odb,Step-1,Increment      7: Step Time =,    70.00,"TUBE-1",          6893,   7.07107E-03,   7.07107E-03,   525.000E-03,NA,NA,"",   10.0120E-03,            0.,   526.271E-03,   12.0355E-06,   1.26299E+03
C:/ALETube/PressureUpdate/LargeStep/DeformErode/JobErode.odb,Step-1,Increment      7: Step Time =,    70.00,"TUBE-1",          7091,   5.87785E-03,   8.09017E-03,   537.500E-03,NA,NA,"",   10.0123E-03,            0.,   538.767E-03,   12.3066E-06,   1.29115E+03
C:/ALETube/PressureUpdate/LargeStep/DeformErode/JobErode.odb,Step-1,Increment      7: Step Time =,    70.00,"TUBE-1",          7057,   7.07107E-03,   7.07107E-03,   537.500E-03,NA,NA,"",   10.0123E-03,            0.,   538.767E-03,   12.3220E-06,   1.29303E+03
C:/ALETube/PressureUpdate/LargeStep/DeformErode/JobErode.odb,Step-1,Increment      7: Step Time =,    70.00,"TUBE-1",          7255,   5.87785E-03,   8.09017E-03,   550.000E-03,NA,NA,"",   10.0126E-03,            0.,   551.262E-03,   12.5927E-06,   1.32114E+03
C:/ALETube/PressureUpdate/LargeStep/DeformErode/JobErode.odb,Step-1,Increment      7: Step Time =,    70.00,"TUBE-1",          7221,   7.07107E-03,   7.07107E-03,   550.000E-03,NA,NA,"",   10.0126E-03,            0.,   551.262E-03,   12.6084E-06,   1.32306E+03
C:/ALETube/PressureUpdate/LargeStep/DeformErode/JobErode.odb,Step-1,Increment      7: Step Time =,    70.00,"TUBE-1",          7385,   7.07107E-03,   7.07107E-03,     562.5E-03,NA,NA,"",   10.0129E-03,            0.,   563.757E-03,   12.8949E-06,   1.35309E+03
C:/ALETube/PressureUpdate/LargeStep/DeformErode/JobErode.odb,Step-1,Increment      7: Step Time =,    70.00,"TUBE-1",          7419,   5.87785E-03,   8.09017E-03,     562.5E-03,NA,NA,"",   10.0129E-03,  -867.362E-21,   563.757E-03,   12.8788E-06,   1.35112E+03
C:/ALETube/PressureUpdate/LargeStep/DeformErode/JobErode.odb,Step-1,Increment      7: Step Time =,    70.00,"TUBE-1",          7583,   5.87785E-03,   8.09017E-03,   575.000E-03,NA,NA,"",   10.0132E-03,            0.,   576.252E-03,   13.1648E-06,   1.38111E+03
C:/ALETube/PressureUpdate/LargeStep/DeformErode/JobErode.odb,Step-1,Increment      7: Step Time =,    70.00,"TUBE-1",          7549,   7.07107E-03,   7.07107E-03,   575.000E-03,NA,NA,"",   10.0132E-03,            0.,   576.252E-03,   13.1813E-06,   1.38312E+03
C:/ALETube/PressureUpdate/LargeStep/DeformErode/JobErode.odb,Step-1,Increment      7: Step Time =,    70.00,"TUBE-1",          7747,   5.87785E-03,   8.09017E-03,   587.500E-03,NA,NA,"",   10.0135E-03,  -376.728E-12,   588.747E-03,   13.4509E-06,   1.41109E+03
C:/ALETube/PressureUpdate/LargeStep/DeformErode/JobErode.odb,Step-1,Increment      7: Step Time =,    70.00,"TUBE-1",          7713,   7.07107E-03,   7.07107E-03,   587.500E-03,NA,NA,"",   10.0135E-03,            0.,   588.747E-03,   13.4677E-06,   1.41315E+03
C:/ALETube/PressureUpdate/LargeStep/DeformErode/JobErode.odb,Step-1,Increment      7: Step Time =,    70.00,"TUBE-1",          7911,   5.87785E-03,   8.09017E-03,   600.000E-03,NA,NA,"",   10.0137E-03,            0.,   601.242E-03,   13.7369E-06,   1.44107E+03
C:/ALETube/PressureUpdate/LargeStep/DeformErode/JobErode.odb,Step-1,Increment      7: Step Time =,    70.00,"TUBE-1",          7877,   7.07107E-03,   7.07107E-03,   600.000E-03,NA,NA,"",   10.0138E-03,            0.,   601.242E-03,   13.7541E-06,   1.44317E+03
C:/ALETube/PressureUpdate/LargeStep/DeformErode/JobErode.odb,Step-1,Increment      7: Step Time =,    70.00,"TUBE-1",          8075,   5.87785E-03,   8.09017E-03,   612.500E-03,NA,NA,"",   10.0140E-03,            0.,   613.737E-03,   14.0230E-06,   1.47105E+03
C:/ALETube/PressureUpdate/LargeStep/DeformErode/JobErode.odb,Step-1,Increment      7: Step Time =,    70.00,"TUBE-1",          8041,   7.07107E-03,   7.07107E-03,   612.500E-03,NA,NA,"",   10.0140E-03,            0.,   613.737E-03,   14.0405E-06,   1.47319E+03
C:/ALETube/PressureUpdate/LargeStep/DeformErode/JobErode.odb,Step-1,Increment      7: Step Time =,    70.00,"TUBE-1",          8205,   7.07107E-03,   7.07107E-03,      625.E-03,NA,NA,"",   10.0143E-03,            0.,   626.232E-03,   14.3269E-06,   1.50321E+03
C:/ALETube/PressureUpdate/LargeStep/DeformErode/JobErode.odb,Step-1,Increment      7: Step Time =,    70.00,"TUBE-1",          8239,   5.87785E-03,   8.09017E-03,      625.E-03,NA,NA,"",   10.0143E-03,            0.,   626.232E-03,   14.3090E-06,   1.50103E+03
C:/ALETube/PressureUpdate/LargeStep/DeformErode/JobErode.odb,Step-1,Increment      7: Step Time =,    70.00,"TUBE-1",          8403,   5.87785E-03,   8.09017E-03,   637.500E-03,NA,NA,"",   10.0146E-03,   867.362E-21,   638.726E-03,   14.5950E-06,   1.53100E+03
C:/ALETube/PressureUpdate/LargeStep/DeformErode/JobErode.odb,Step-1,Increment      7: Step Time =,    70.00,"TUBE-1",          8369,   7.07107E-03,   7.07107E-03,   637.500E-03,NA,NA,"",   10.0146E-03,            0.,   638.726E-03,   14.6133E-06,   1.53323E+03
C:/ALETube/PressureUpdate/LargeStep/DeformErode/JobErode.odb,Step-1,Increment      7: Step Time =,    70.00,"TUBE-1",          8567,   5.87785E-03,   8.09017E-03,   650.000E-03,NA,NA,"",   10.0149E-03,            0.,   651.221E-03,   14.8810E-06,   1.56097E+03
C:/ALETube/PressureUpdate/LargeStep/DeformErode/JobErode.odb,Step-1,Increment      7: Step Time =,    70.00,"TUBE-1",          8533,   7.07107E-03,   7.07107E-03,   650.000E-03,NA,NA,"",   10.0149E-03,            0.,   651.221E-03,   14.8996E-06,   1.56325E+03
C:/ALETube/PressureUpdate/LargeStep/DeformErode/JobErode.odb,Step-1,Increment      7: Step Time =,    70.00,"TUBE-1",          8731,   5.87785E-03,   8.09017E-03,   662.500E-03,NA,NA,"",   10.0152E-03,   867.362E-21,   663.715E-03,   15.1671E-06,   1.59094E+03
C:/ALETube/PressureUpdate/LargeStep/DeformErode/JobErode.odb,Step-1,Increment      7: Step Time =,    70.00,"TUBE-1",          8697,   7.07107E-03,   7.07107E-03,   662.500E-03,NA,NA,"",   10.0152E-03,            0.,   663.715E-03,   15.1860E-06,   1.59326E+03
C:/ALETube/PressureUpdate/LargeStep/DeformErode/JobErode.odb,Step-1,Increment      7: Step Time =,    70.00,"TUBE-1",          8895,   5.87785E-03,   8.09017E-03,   675.000E-03,NA,NA,"",   10.0155E-03,  -867.362E-21,   676.209E-03,   15.4531E-06,   1.62091E+03
C:/ALETube/PressureUpdate/LargeStep/DeformErode/JobErode.odb,Step-1,Increment      7: Step Time =,    70.00,"TUBE-1",          8861,   7.07107E-03,   7.07107E-03,   675.000E-03,NA,NA,"",   10.0155E-03,            0.,   676.209E-03,   15.4724E-06,   1.62327E+03
C:/ALETube/PressureUpdate/LargeStep/DeformErode/JobErode.odb,Step-1,Increment      7: Step Time =,    70.00,"TUBE-1",          9025,   7.07107E-03,   7.07107E-03,     687.5E-03,NA,NA,"",   10.0158E-03,            0.,   688.704E-03,   15.7587E-06,   1.65328E+03
C:/ALETube/PressureUpdate/LargeStep/DeformErode/JobErode.odb,Step-1,Increment      7: Step Time =,    70.00,"TUBE-1",          9059,   5.87785E-03,   8.09017E-03,     687.5E-03,NA,NA,"",   10.0157E-03,            0.,   688.704E-03,   15.7390E-06,   1.65088E+03
C:/ALETube/PressureUpdate/LargeStep/DeformErode/JobErode.odb,Step-1,Increment      7: Step Time =,    70.00,"TUBE-1",          9223,   5.87785E-03,   8.09017E-03,   700.000E-03,NA,NA,"",   10.0160E-03,            0.,   701.198E-03,   16.0250E-06,   1.68084E+03
C:/ALETube/PressureUpdate/LargeStep/DeformErode/JobErode.odb,Step-1,Increment      7: Step Time =,    70.00,"TUBE-1",          9189,   7.07107E-03,   7.07107E-03,   700.000E-03,NA,NA,"",   10.0160E-03,            0.,   701.198E-03,   16.0450E-06,   1.68329E+03
C:/ALETube/PressureUpdate/LargeStep/DeformErode/JobErode.odb,Step-1,Increment      7: Step Time =,    70.00,"TUBE-1",          9387,   5.87785E-03,   8.09017E-03,   712.500E-03,NA,NA,"",   10.0163E-03,            0.,   713.692E-03,   16.3110E-06,   1.71080E+03
C:/ALETube/PressureUpdate/LargeStep/DeformErode/JobErode.odb,Step-1,Increment      7: Step Time =,    70.00,"TUBE-1",          9353,   7.07107E-03,   7.07107E-03,   712.500E-03,NA,NA,"",   10.0163E-03,            0.,   713.692E-03,   16.3314E-06,   1.71329E+03
C:/ALETube/PressureUpdate/LargeStep/DeformErode/JobErode.odb,Step-1,Increment      7: Step Time =,    70.00,"TUBE-1",          9551,   5.87785E-03,   8.09017E-03,   725.000E-03,NA,NA,"",   10.0166E-03,   867.362E-21,   726.185E-03,   16.5970E-06,   1.74076E+03
C:/ALETube/PressureUpdate/LargeStep/DeformErode/JobErode.odb,Step-1,Increment      7: Step Time =,    70.00,"TUBE-1",          9517,   7.07107E-03,   7.07107E-03,   725.000E-03,NA,NA,"",   10.0166E-03,            0.,   726.185E-03,   16.6177E-06,   1.74330E+03
C:/ALETube/PressureUpdate/LargeStep/DeformErode/JobErode.odb,Step-1,Increment      7: Step Time =,    70.00,"TUBE-1",          9715,   5.87785E-03,   8.09017E-03,   737.500E-03,NA,NA,"",   10.0169E-03,  -867.362E-21,   738.679E-03,   16.8829E-06,   1.77072E+03
C:/ALETube/PressureUpdate/LargeStep/DeformErode/JobErode.odb,Step-1,Increment      7: Step Time =,    70.00,"TUBE-1",          9681,   7.07107E-03,   7.07107E-03,   737.500E-03,NA,NA,"",   10.0169E-03,            0.,   738.679E-03,   16.9040E-06,   1.77330E+03
C:/ALETube/PressureUpdate/LargeStep/DeformErode/JobErode.odb,Step-1,Increment      7: Step Time =,    70.00,"TUBE-1",          9845,   7.07107E-03,   7.07107E-03,      750.E-03,NA,NA,"",   10.0172E-03,            0.,   751.173E-03,   17.1903E-06,   1.80330E+03
C:/ALETube/PressureUpdate/LargeStep/DeformErode/JobErode.odb,Step-1,Increment      7: Step Time =,    70.00,"TUBE-1",          9879,   5.87785E-03,   8.09017E-03,      750.E-03,NA,NA,"",   10.0172E-03,            0.,   751.173E-03,   17.1689E-06,   1.80068E+03
C:/ALETube/PressureUpdate/LargeStep/DeformErode/JobErode.odb,Step-1,Increment      7: Step Time =,    70.00,"TUBE-1",         10043,   5.87785E-03,   8.09017E-03,   762.500E-03,NA,NA,"",   10.0175E-03,            0.,   763.666E-03,   17.4548E-06,   1.83063E+03
C:/ALETube/PressureUpdate/LargeStep/DeformErode/JobErode.odb,Step-1,Increment      7: Step Time =,    70.00,"TUBE-1",         10009,   7.07107E-03,   7.07107E-03,   762.500E-03,NA,NA,"",   10.0175E-03,            0.,   763.666E-03,   17.4766E-06,   1.83330E+03
C:/ALETube/PressureUpdate/LargeStep/DeformErode/JobErode.odb,Step-1,Increment      7: Step Time =,    70.00,"TUBE-1",         10207,   5.87785E-03,   8.09017E-03,   775.000E-03,NA,NA,"",   10.0177E-03,   867.362E-21,   776.160E-03,   17.7407E-06,   1.86058E+03
C:/ALETube/PressureUpdate/LargeStep/DeformErode/JobErode.odb,Step-1,Increment      7: Step Time =,    70.00,"TUBE-1",         10173,   7.07107E-03,   7.07107E-03,   775.000E-03,NA,NA,"",   10.0178E-03,            0.,   776.160E-03,   17.7629E-06,   1.86329E+03
C:/ALETube/PressureUpdate/LargeStep/DeformErode/JobErode.odb,Step-1,Increment      7: Step Time =,    70.00,"TUBE-1",         10371,   5.87785E-03,   8.09017E-03,   787.500E-03,NA,NA,"",   10.0180E-03,            0.,   788.653E-03,   18.0267E-06,   1.89053E+03
C:/ALETube/PressureUpdate/LargeStep/DeformErode/JobErode.odb,Step-1,Increment      7: Step Time =,    70.00,"TUBE-1",         10337,   7.07107E-03,   7.07107E-03,   787.500E-03,NA,NA,"",   10.0180E-03,            0.,   788.653E-03,   18.0492E-06,   1.89328E+03
C:/ALETube/PressureUpdate/LargeStep/DeformErode/JobErode.odb,Step-1,Increment      7: Step Time =,    70.00,"TUBE-1",         10535,   5.87785E-03,   8.09017E-03,   800.000E-03,NA,NA,"",   10.0183E-03,            0.,   801.146E-03,   18.3126E-06,   1.92048E+03
C:/ALETube/PressureUpdate/LargeStep/DeformErode/JobErode.odb,Step-1,Increment      7: Step Time =,    70.00,"TUBE-1",         10501,   7.07107E-03,   7.07107E-03,   800.000E-03,NA,NA,"",   10.0183E-03,            0.,   801.146E-03,   18.3354E-06,   1.92327E+03
C:/ALETube/PressureUpdate/LargeStep/DeformErode/JobErode.odb,Step-1,Increment      7: Step Time =,    70.00,"TUBE-1",         10665,   7.07107E-03,   7.07107E-03,     812.5E-03,NA,NA,"",   10.0186E-03,            0.,   813.639E-03,   18.6217E-06,   1.95326E+03
C:/ALETube/PressureUpdate/LargeStep/DeformErode/JobErode.odb,Step-1,Increment      7: Step Time =,    70.00,"TUBE-1",         10699,   5.87785E-03,   8.09017E-03,     812.5E-03,NA,NA,"",   10.0186E-03,            0.,   813.639E-03,   18.5985E-06,   1.95043E+03
C:/ALETube/PressureUpdate/LargeStep/DeformErode/JobErode.odb,Step-1,Increment      7: Step Time =,    70.00,"TUBE-1",         10863,   5.87785E-03,   8.09017E-03,   825.000E-03,NA,NA,"",   10.0189E-03,            0.,   826.132E-03,   18.8844E-06,   1.98037E+03
C:/ALETube/PressureUpdate/LargeStep/DeformErode/JobErode.odb,Step-1,Increment      7: Step Time =,    70.00,"TUBE-1",         10829,   7.07107E-03,   7.07107E-03,   825.000E-03,NA,NA,"",   10.0189E-03,            0.,   826.132E-03,   18.9079E-06,   1.98325E+03
C:/ALETube/PressureUpdate/LargeStep/DeformErode/JobErode.odb,Step-1,Increment      7: Step Time =,    70.00,"TUBE-1",         11027,   5.87785E-03,   8.09017E-03,   837.500E-03,NA,NA,"",   10.0192E-03,  -867.362E-21,   838.625E-03,   19.1703E-06,   2.01031E+03
C:/ALETube/PressureUpdate/LargeStep/DeformErode/JobErode.odb,Step-1,Increment      7: Step Time =,    70.00,"TUBE-1",         10993,   7.07107E-03,   7.07107E-03,   837.500E-03,NA,NA,"",   10.0192E-03,            0.,   838.625E-03,   19.1942E-06,   2.01324E+03
C:/ALETube/PressureUpdate/LargeStep/DeformErode/JobErode.odb,Step-1,Increment      7: Step Time =,    70.00,"TUBE-1",         11191,   5.87785E-03,   8.09017E-03,   850.000E-03,NA,NA,"",   10.0195E-03,  -867.362E-21,   851.118E-03,   19.4561E-06,   2.04025E+03
C:/ALETube/PressureUpdate/LargeStep/DeformErode/JobErode.odb,Step-1,Increment      7: Step Time =,    70.00,"TUBE-1",         11157,   7.07107E-03,   7.07107E-03,   850.000E-03,NA,NA,"",   10.0195E-03,            0.,   851.118E-03,   19.4804E-06,   2.04322E+03
C:/ALETube/PressureUpdate/LargeStep/DeformErode/JobErode.odb,Step-1,Increment      7: Step Time =,    70.00,"TUBE-1",         11355,   5.87785E-03,   8.09017E-03,   862.500E-03,NA,NA,"",   10.0197E-03,   867.362E-21,   863.610E-03,   19.7420E-06,   2.07019E+03
C:/ALETube/PressureUpdate/LargeStep/DeformErode/JobErode.odb,Step-1,Increment      7: Step Time =,    70.00,"TUBE-1",         11321,   7.07107E-03,   7.07107E-03,   862.500E-03,NA,NA,"",   10.0198E-03,            0.,   863.610E-03,   19.7666E-06,   2.07320E+03
C:/ALETube/PressureUpdate/LargeStep/DeformErode/JobErode.odb,Step-1,Increment      7: Step Time =,    70.00,"TUBE-1",         11485,   7.07107E-03,   7.07107E-03,      875.E-03,NA,NA,"",   10.0201E-03,            0.,   876.103E-03,   20.0528E-06,   2.10318E+03
C:/ALETube/PressureUpdate/LargeStep/DeformErode/JobErode.odb,Step-1,Increment      7: Step Time =,    70.00,"TUBE-1",         11519,   5.87785E-03,   8.09017E-03,      875.E-03,NA,NA,"",   10.0200E-03,   867.362E-21,   876.103E-03,   20.0279E-06,   2.10012E+03
C:/ALETube/PressureUpdate/LargeStep/DeformErode/JobErode.odb,Step-1,Increment      7: Step Time =,    70.00,"TUBE-1",         11683,   5.87785E-03,   8.09017E-03,   887.500E-03,NA,NA,"",   10.0203E-03,  -867.362E-21,   888.595E-03,   20.3137E-06,   2.13006E+03
C:/ALETube/PressureUpdate/LargeStep/DeformErode/JobErode.odb,Step-1,Increment      7: Step Time =,    70.00,"TUBE-1",         11649,   7.07107E-03,   7.07107E-03,   887.500E-03,NA,NA,"",   10.0203E-03,            0.,   888.595E-03,   20.3391E-06,   2.13316E+03
C:/ALETube/PressureUpdate/LargeStep/DeformErode/JobErode.odb,Step-1,Increment      7: Step Time =,    70.00,"TUBE-1",         11847,   5.87785E-03,   8.09017E-03,   900.000E-03,NA,NA,"",   10.0206E-03,            0.,   901.088E-03,   20.5996E-06,   2.15999E+03
C:/ALETube/PressureUpdate/LargeStep/DeformErode/JobErode.odb,Step-1,Increment      7: Step Time =,    70.00,"TUBE-1",         11813,   7.07107E-03,   7.07107E-03,   900.000E-03,NA,NA,"",   10.0206E-03,            0.,   901.088E-03,   20.6253E-06,   2.16313E+03
C:/ALETube/PressureUpdate/LargeStep/DeformErode/JobErode.odb,Step-1,Increment      7: Step Time =,    70.00,"TUBE-1",         12011,   5.87785E-03,   8.09017E-03,   912.500E-03,NA,NA,"",   10.0209E-03,            0.,   913.580E-03,   20.8854E-06,   2.18992E+03
C:/ALETube/PressureUpdate/LargeStep/DeformErode/JobErode.odb,Step-1,Increment      7: Step Time =,    70.00,"TUBE-1",         11977,   7.07107E-03,   7.07107E-03,   912.500E-03,NA,NA,"",   10.0209E-03,            0.,   913.580E-03,   20.9114E-06,   2.19310E+03
C:/ALETube/PressureUpdate/LargeStep/DeformErode/JobErode.odb,Step-1,Increment      7: Step Time =,    70.00,"TUBE-1",         12175,   5.87785E-03,   8.09017E-03,   925.000E-03,NA,NA,"",   10.0212E-03,            0.,   926.072E-03,   21.1712E-06,   2.21985E+03
C:/ALETube/PressureUpdate/LargeStep/DeformErode/JobErode.odb,Step-1,Increment      7: Step Time =,    70.00,"TUBE-1",         12141,   7.07107E-03,   7.07107E-03,   925.000E-03,NA,NA,"",   10.0212E-03,            0.,   926.072E-03,   21.1976E-06,   2.22307E+03
C:/ALETube/PressureUpdate/LargeStep/DeformErode/JobErode.odb,Step-1,Increment      7: Step Time =,    70.00,"TUBE-1",         12305,   7.07107E-03,   7.07107E-03,     937.5E-03,NA,NA,"",   10.0215E-03,            0.,   938.564E-03,   21.4838E-06,   2.25304E+03
C:/ALETube/PressureUpdate/LargeStep/DeformErode/JobErode.odb,Step-1,Increment      7: Step Time =,    70.00,"TUBE-1",         12339,   5.87785E-03,   8.09017E-03,     937.5E-03,NA,NA,"",   10.0215E-03,            0.,   938.564E-03,   21.4571E-06,   2.24977E+03
C:/ALETube/PressureUpdate/LargeStep/DeformErode/JobErode.odb,Step-1,Increment      7: Step Time =,    70.00,"TUBE-1",         12503,   5.87785E-03,   8.09017E-03,   950.000E-03,NA,NA,"",   10.0217E-03,            0.,   951.056E-03,   21.7429E-06,   2.27970E+03
C:/ALETube/PressureUpdate/LargeStep/DeformErode/JobErode.odb,Step-1,Increment      7: Step Time =,    70.00,"TUBE-1",         12469,   7.07107E-03,   7.07107E-03,   950.000E-03,NA,NA,"",   10.0218E-03,            0.,   951.056E-03,   21.7700E-06,   2.28301E+03
C:/ALETube/PressureUpdate/LargeStep/DeformErode/JobErode.odb,Step-1,Increment      7: Step Time =,    70.00,"TUBE-1",         12667,   5.87785E-03,   8.09017E-03,   962.500E-03,NA,NA,"",   10.0220E-03,            0.,   963.548E-03,   22.0287E-06,   2.30962E+03
C:/ALETube/PressureUpdate/LargeStep/DeformErode/JobErode.odb,Step-1,Increment      7: Step Time =,    70.00,"TUBE-1",         12633,   7.07107E-03,   7.07107E-03,   962.500E-03,NA,NA,"",   10.0221E-03,            0.,   963.548E-03,   22.0561E-06,   2.31297E+03
C:/ALETube/PressureUpdate/LargeStep/DeformErode/JobErode.odb,Step-1,Increment      7: Step Time =,    70.00,"TUBE-1",         12831,   5.87785E-03,   8.09017E-03,   975.000E-03,NA,NA,"",   10.0223E-03,            0.,   976.039E-03,   22.3145E-06,   2.33954E+03
C:/ALETube/PressureUpdate/LargeStep/DeformErode/JobErode.odb,Step-1,Increment      7: Step Time =,    70.00,"TUBE-1",         12797,   7.07107E-03,   7.07107E-03,   975.000E-03,NA,NA,"",   10.0223E-03,            0.,   976.039E-03,   22.3423E-06,   2.34294E+03
C:/ALETube/PressureUpdate/LargeStep/DeformErode/JobErode.odb,Step-1,Increment      7: Step Time =,    70.00,"TUBE-1",         12995,   5.87785E-03,   8.09017E-03,   987.500E-03,NA,NA,"",   10.0226E-03,            0.,   988.531E-03,   22.6002E-06,   2.36945E+03
C:/ALETube/PressureUpdate/LargeStep/DeformErode/JobErode.odb,Step-1,Increment      7: Step Time =,    70.00,"TUBE-1",         12961,   7.07107E-03,   7.07107E-03,   987.500E-03,NA,NA,"",   10.0226E-03,            0.,   988.531E-03,   22.6284E-06,   2.37290E+03
C:/ALETube/PressureUpdate/LargeStep/DeformErode/JobErode.odb,Step-1,Increment      7: Step Time =,    70.00,"TUBE-1",         13125,   7.07107E-03,   7.07107E-03,            1.,NA,NA,"",   10.0229E-03,            0.,       1.00102,   22.9145E-06,   2.40285E+03
C:/ALETube/PressureUpdate/LargeStep/DeformErode/JobErode.odb,Step-1,Increment      7: Step Time =,    70.00,"TUBE-1",         13159,   5.87785E-03,   8.09017E-03,            1.,NA,NA,"",   10.0229E-03,  -1.73472E-18,       1.00102,   22.8860E-06,   2.39937E+03
C:/ALETube/PressureUpdate/LargeStep/DeformErode/JobErode.odb,Step-1,Increment      7: Step Time =,    70.00,"TUBE-1",         13323,   5.87785E-03,   8.09017E-03,       1.01250,NA,NA,"",   10.0232E-03,            0.,       1.01351,   23.1718E-06,   2.42928E+03
C:/ALETube/PressureUpdate/LargeStep/DeformErode/JobErode.odb,Step-1,Increment      7: Step Time =,    70.00,"TUBE-1",         13289,   7.07107E-03,   7.07107E-03,       1.01250,NA,NA,"",   10.0232E-03,            0.,       1.01351,   23.2007E-06,   2.43281E+03
C:/ALETube/PressureUpdate/LargeStep/DeformErode/JobErode.odb,Step-1,Increment      7: Step Time =,    70.00,"TUBE-1",         13487,   5.87785E-03,   8.09017E-03,       1.02500,NA,NA,"",   10.0235E-03,  -867.362E-21,       1.02601,   23.4575E-06,   2.45919E+03
C:/ALETube/PressureUpdate/LargeStep/DeformErode/JobErode.odb,Step-1,Increment      7: Step Time =,    70.00,"TUBE-1",         13453,   7.07107E-03,   7.07107E-03,       1.02500,NA,NA,"",   10.0235E-03,            0.,       1.02601,   23.4868E-06,   2.46276E+03
C:/ALETube/PressureUpdate/LargeStep/DeformErode/JobErode.odb,Step-1,Increment      7: Step Time =,    70.00,"TUBE-1",         13617,   7.07107E-03,   7.07107E-03,       1.03750,NA,NA,"",   10.0238E-03,            0.,       1.03850,   23.7729E-06,   2.49272E+03
C:/ALETube/PressureUpdate/LargeStep/DeformErode/JobErode.odb,Step-1,Increment      7: Step Time =,    70.00,"TUBE-1",         13651,   5.87785E-03,   8.09017E-03,       1.03750,NA,NA,"",   10.0237E-03,  -867.362E-21,       1.03850,   23.7433E-06,   2.48910E+03
C:/ALETube/PressureUpdate/LargeStep/DeformErode/JobErode.odb,Step-1,Increment      7: Step Time =,    70.00,"TUBE-1",         13815,   5.87785E-03,   8.09017E-03,       1.05000,NA,NA,"",   10.0240E-03,  -867.362E-21,       1.05099,   24.0290E-06,   2.51901E+03
C:/ALETube/PressureUpdate/LargeStep/DeformErode/JobErode.odb,Step-1,Increment      7: Step Time =,    70.00,"TUBE-1",         13781,   7.07107E-03,   7.07107E-03,       1.05000,NA,NA,"",   10.0241E-03,            0.,       1.05099,   24.0590E-06,   2.52267E+03
C:/ALETube/PressureUpdate/LargeStep/DeformErode/JobErode.odb,Step-1,Increment      7: Step Time =,    70.00,"TUBE-1",         13979,   5.87785E-03,   8.09017E-03,        1.0625,NA,NA,"",   10.0243E-03,            0.,       1.06348,   24.3148E-06,   2.54891E+03
C:/ALETube/PressureUpdate/LargeStep/DeformErode/JobErode.odb,Step-1,Increment      7: Step Time =,    70.00,"TUBE-1",         13945,   7.07107E-03,   7.07107E-03,        1.0625,NA,NA,"",   10.0243E-03,            0.,       1.06348,   24.3451E-06,   2.55261E+03
C:/ALETube/PressureUpdate/LargeStep/DeformErode/JobErode.odb,Step-1,Increment      7: Step Time =,    70.00,"TUBE-1",         14109,   7.07107E-03,   7.07107E-03,       1.07500,NA,NA,"",   10.0246E-03,            0.,       1.07597,   24.6311E-06,   2.58256E+03
C:/ALETube/PressureUpdate/LargeStep/DeformErode/JobErode.odb,Step-1,Increment      7: Step Time =,    70.00,"TUBE-1",         14143,   5.87785E-03,   8.09017E-03,       1.07500,NA,NA,"",   10.0246E-03,  -867.362E-21,       1.07597,   24.6005E-06,   2.57882E+03
C:/ALETube/PressureUpdate/LargeStep/DeformErode/JobErode.odb,Step-1,Increment      7: Step Time =,    70.00,"TUBE-1",         14307,   5.87785E-03,   8.09017E-03,       1.08750,NA,NA,"",   10.0249E-03,            0.,       1.08846,   24.8862E-06,   2.60872E+03
C:/ALETube/PressureUpdate/LargeStep/DeformErode/JobErode.odb,Step-1,Increment      7: Step Time =,    70.00,"TUBE-1",         14273,   7.07107E-03,   7.07107E-03,       1.08750,NA,NA,"",   10.0249E-03,            0.,       1.08846,   24.9172E-06,   2.61250E+03
C:/ALETube/PressureUpdate/LargeStep/DeformErode/JobErode.odb,Step-1,Increment      7: Step Time =,    70.00,"TUBE-1",         14471,   5.87785E-03,   8.09017E-03,       1.10000,NA,NA,"",   10.0252E-03,            0.,       1.10095,   25.1719E-06,   2.63862E+03
C:/ALETube/PressureUpdate/LargeStep/DeformErode/JobErode.odb,Step-1,Increment      7: Step Time =,    70.00,"TUBE-1",         14437,   7.07107E-03,   7.07107E-03,       1.10000,NA,NA,"",   10.0252E-03,            0.,       1.10095,   25.2033E-06,   2.64245E+03
C:/ALETube/PressureUpdate/LargeStep/DeformErode/JobErode.odb,Step-1,Increment      7: Step Time =,    70.00,"TUBE-1",         14635,   5.87785E-03,   8.09017E-03,       1.11250,NA,NA,"",   10.0255E-03,            0.,       1.11344,   25.4576E-06,   2.66851E+03
C:/ALETube/PressureUpdate/LargeStep/DeformErode/JobErode.odb,Step-1,Increment      7: Step Time =,    70.00,"TUBE-1",         14601,   7.07107E-03,   7.07107E-03,       1.11250,NA,NA,"",   10.0255E-03,            0.,       1.11344,   25.4893E-06,   2.67239E+03
C:/ALETube/PressureUpdate/LargeStep/DeformErode/JobErode.odb,Step-1,Increment      7: Step Time =,    70.00,"TUBE-1",         14799,   5.87785E-03,   8.09017E-03,         1.125,NA,NA,"",   10.0257E-03,            0.,       1.12593,   25.7433E-06,   2.69841E+03
C:/ALETube/PressureUpdate/LargeStep/DeformErode/JobErode.odb,Step-1,Increment      7: Step Time =,    70.00,"TUBE-1",         14765,   7.07107E-03,   7.07107E-03,         1.125,NA,NA,"",   10.0258E-03,            0.,       1.12593,   25.7754E-06,   2.70232E+03
C:/ALETube/PressureUpdate/LargeStep/DeformErode/JobErode.odb,Step-1,Increment      7: Step Time =,    70.00,"TUBE-1",         14929,   7.07107E-03,   7.07107E-03,       1.13750,NA,NA,"",   10.0261E-03,            0.,       1.13842,   26.0614E-06,   2.73226E+03
C:/ALETube/PressureUpdate/LargeStep/DeformErode/JobErode.odb,Step-1,Increment      7: Step Time =,    70.00,"TUBE-1",         14963,   5.87785E-03,   8.09017E-03,       1.13750,NA,NA,"",   10.0260E-03,            0.,       1.13842,   26.0290E-06,   2.72830E+03
C:/ALETube/PressureUpdate/LargeStep/DeformErode/JobErode.odb,Step-1,Increment      7: Step Time =,    70.00,"TUBE-1",         15127,   5.87785E-03,   8.09017E-03,       1.15000,NA,NA,"",   10.0263E-03,            0.,       1.15091,   26.3147E-06,   2.75819E+03
C:/ALETube/PressureUpdate/LargeStep/DeformErode/JobErode.odb,Step-1,Increment      7: Step Time =,    70.00,"TUBE-1",         15093,   7.07107E-03,   7.07107E-03,       1.15000,NA,NA,"",   10.0263E-03,            0.,       1.15091,   26.3474E-06,   2.76219E+03
C:/ALETube/PressureUpdate/LargeStep/DeformErode/JobErode.odb,Step-1,Increment      7: Step Time =,    70.00,"TUBE-1",         15291,   5.87785E-03,   8.09017E-03,       1.16250,NA,NA,"",   10.0266E-03,            0.,       1.16340,   26.6004E-06,   2.78808E+03
C:/ALETube/PressureUpdate/LargeStep/DeformErode/JobErode.odb,Step-1,Increment      7: Step Time =,    70.00,"TUBE-1",         15257,   7.07107E-03,   7.07107E-03,       1.16250,NA,NA,"",   10.0266E-03,            0.,       1.16340,   26.6335E-06,   2.79213E+03
C:/ALETube/PressureUpdate/LargeStep/DeformErode/JobErode.odb,Step-1,Increment      7: Step Time =,    70.00,"TUBE-1",         15455,   5.87785E-03,   8.09017E-03,       1.17500,NA,NA,"",   10.0269E-03,            0.,       1.17589,   26.8860E-06,   2.81797E+03
C:/ALETube/PressureUpdate/LargeStep/DeformErode/JobErode.odb,Step-1,Increment      7: Step Time =,    70.00,"TUBE-1",         15421,   7.07107E-03,   7.07107E-03,       1.17500,NA,NA,"",   10.0269E-03,            0.,       1.17589,   26.9195E-06,   2.82206E+03
C:/ALETube/PressureUpdate/LargeStep/DeformErode/JobErode.odb,Step-1,Increment      7: Step Time =,    70.00,"TUBE-1",         15619,   5.87785E-03,   8.09017E-03,        1.1875,NA,NA,"",   10.0272E-03,            0.,       1.18838,   27.1717E-06,   2.84785E+03
C:/ALETube/PressureUpdate/LargeStep/DeformErode/JobErode.odb,Step-1,Increment      7: Step Time =,    70.00,"TUBE-1",         15585,   7.07107E-03,   7.07107E-03,        1.1875,NA,NA,"",   10.0272E-03,            0.,       1.18838,   27.2055E-06,   2.85198E+03
C:/ALETube/PressureUpdate/LargeStep/DeformErode/JobErode.odb,Step-1,Increment      7: Step Time =,    70.00,"TUBE-1",         15749,   7.07107E-03,   7.07107E-03,       1.20000,NA,NA,"",   10.0275E-03,            0.,       1.20087,   27.4915E-06,   2.88191E+03
C:/ALETube/PressureUpdate/LargeStep/DeformErode/JobErode.odb,Step-1,Increment      7: Step Time =,    70.00,"TUBE-1",         15783,   5.87785E-03,   8.09017E-03,       1.20000,NA,NA,"",   10.0275E-03,  -867.362E-21,       1.20087,   27.4573E-06,   2.87773E+03
C:/ALETube/PressureUpdate/LargeStep/DeformErode/JobErode.odb,Step-1,Increment      7: Step Time =,    70.00,"TUBE-1",         15947,   5.87785E-03,   8.09017E-03,       1.21250,NA,NA,"",   10.0277E-03,            0.,       1.21336,   27.7429E-06,   2.90761E+03
C:/ALETube/PressureUpdate/LargeStep/DeformErode/JobErode.odb,Step-1,Increment      7: Step Time =,    70.00,"TUBE-1",         15913,   7.07107E-03,   7.07107E-03,       1.21250,NA,NA,"",   10.0278E-03,            0.,       1.21336,   27.7774E-06,   2.91183E+03
C:/ALETube/PressureUpdate/LargeStep/DeformErode/JobErode.odb,Step-1,Increment      7: Step Time =,    70.00,"TUBE-1",         16111,   5.87785E-03,   8.09017E-03,       1.22500,NA,NA,"",   10.0280E-03,            0.,       1.22585,   28.0286E-06,   2.93749E+03
C:/ALETube/PressureUpdate/LargeStep/DeformErode/JobErode.odb,Step-1,Increment      7: Step Time =,    70.00,"TUBE-1",         16077,   7.07107E-03,   7.07107E-03,       1.22500,NA,NA,"",   10.0281E-03,            0.,       1.22585,   28.0634E-06,   2.94175E+03
C:/ALETube/PressureUpdate/LargeStep/DeformErode/JobErode.odb,Step-1,Increment      7: Step Time =,    70.00,"TUBE-1",         16275,   5.87785E-03,   8.09017E-03,       1.23750,NA,NA,"",   10.0283E-03,            0.,       1.23834,   28.3142E-06,   2.96737E+03
C:/ALETube/PressureUpdate/LargeStep/DeformErode/JobErode.odb,Step-1,Increment      7: Step Time =,    70.00,"TUBE-1",         16241,   7.07107E-03,   7.07107E-03,       1.23750,NA,NA,"",   10.0283E-03,            0.,       1.23834,   28.3494E-06,   2.97167E+03
C:/ALETube/PressureUpdate/LargeStep/DeformErode/JobErode.odb,Step-1,Increment      7: Step Time =,    70.00,"TUBE-1",         16439,   5.87785E-03,   8.09017E-03,          1.25,NA,NA,"",   10.0286E-03,  -867.362E-21,       1.25083,   28.5998E-06,   2.99724E+03
C:/ALETube/PressureUpdate/LargeStep/DeformErode/JobErode.odb,Step-1,Increment      7: Step Time =,    70.00,"TUBE-1",         16405,   7.07107E-03,   7.07107E-03,          1.25,NA,NA,"",   10.0286E-03,            0.,       1.25083,   28.6353E-06,   3.00159E+03
C:/ALETube/PressureUpdate/LargeStep/DeformErode/JobErode.odb,Step-1,Increment      7: Step Time =,    70.00,"TUBE-1",         16569,   7.07107E-03,   7.07107E-03,       1.26250,NA,NA,"",   10.0289E-03,            0.,       1.26332,   28.9213E-06,   3.03151E+03
C:/ALETube/PressureUpdate/LargeStep/DeformErode/JobErode.odb,Step-1,Increment      7: Step Time =,    70.00,"TUBE-1",         16603,   5.87785E-03,   8.09017E-03,       1.26250,NA,NA,"",   10.0289E-03,            0.,       1.26332,   28.8854E-06,   3.02711E+03
C:/ALETube/PressureUpdate/LargeStep/DeformErode/JobErode.odb,Step-1,Increment      7: Step Time =,    70.00,"TUBE-1",         16767,   5.87785E-03,   8.09017E-03,       1.27500,NA,NA,"",   10.0292E-03,  -867.362E-21,       1.27581,   29.1710E-06,   3.05699E+03
C:/ALETube/PressureUpdate/LargeStep/DeformErode/JobErode.odb,Step-1,Increment      7: Step Time =,    70.00,"TUBE-1",         16733,   7.07107E-03,   7.07107E-03,       1.27500,NA,NA,"",   10.0292E-03,            0.,       1.27581,   29.2072E-06,   3.06142E+03
C:/ALETube/PressureUpdate/LargeStep/DeformErode/JobErode.odb,Step-1,Increment      7: Step Time =,    70.00,"TUBE-1",         16931,   5.87785E-03,   8.09017E-03,       1.28750,NA,NA,"",   10.0295E-03,   867.362E-21,       1.28830,   29.4566E-06,   3.08685E+03
C:/ALETube/PressureUpdate/LargeStep/DeformErode/JobErode.odb,Step-1,Increment      7: Step Time =,    70.00,"TUBE-1",         16897,   7.07107E-03,   7.07107E-03,       1.28750,NA,NA,"",   10.0295E-03,            0.,       1.28830,   29.4932E-06,   3.09133E+03
C:/ALETube/PressureUpdate/LargeStep/DeformErode/JobErode.odb,Step-1,Increment      7: Step Time =,    70.00,"TUBE-1",         17095,   5.87785E-03,   8.09017E-03,       1.30000,NA,NA,"",   10.0297E-03,            0.,       1.30079,   29.7421E-06,   3.11672E+03
C:/ALETube/PressureUpdate/LargeStep/DeformErode/JobErode.odb,Step-1,Increment      7: Step Time =,    70.00,"TUBE-1",         17061,   7.07107E-03,   7.07107E-03,       1.30000,NA,NA,"",   10.0298E-03,            0.,       1.30079,   29.7791E-06,   3.12124E+03
C:/ALETube/PressureUpdate/LargeStep/DeformErode/JobErode.odb,Step-1,Increment      7: Step Time =,    70.00,"TUBE-1",         17259,   5.87785E-03,   8.09017E-03,        1.3125,NA,NA,"",   10.0300E-03,            0.,       1.31327,   30.0277E-06,   3.14658E+03
C:/ALETube/PressureUpdate/LargeStep/DeformErode/JobErode.odb,Step-1,Increment      7: Step Time =,    70.00,"TUBE-1",         17225,   7.07107E-03,   7.07107E-03,        1.3125,NA,NA,"",   10.0301E-03,            0.,       1.31327,   30.0650E-06,   3.15115E+03
C:/ALETube/PressureUpdate/LargeStep/DeformErode/JobErode.odb,Step-1,Increment      7: Step Time =,    70.00,"TUBE-1",         17389,   7.07107E-03,   7.07107E-03,       1.32500,NA,NA,"",   10.0304E-03,            0.,       1.32576,   30.3509E-06,   3.18105E+03
C:/ALETube/PressureUpdate/LargeStep/DeformErode/JobErode.odb,Step-1,Increment      7: Step Time =,    70.00,"TUBE-1",         17423,   5.87785E-03,   8.09017E-03,       1.32500,NA,NA,"",   10.0303E-03,  -867.362E-21,       1.32576,   30.3133E-06,   3.17645E+03
C:/ALETube/PressureUpdate/LargeStep/DeformErode/JobErode.odb,Step-1,Increment      7: Step Time =,    70.00,"TUBE-1",         17587,   5.87785E-03,   8.09017E-03,       1.33750,NA,NA,"",   10.0306E-03,  -867.362E-21,       1.33825,   30.5988E-06,   3.20631E+03
C:/ALETube/PressureUpdate/LargeStep/DeformErode/JobErode.odb,Step-1,Increment      7: Step Time =,    70.00,"TUBE-1",         17553,   7.07107E-03,   7.07107E-03,       1.33750,NA,NA,"",   10.0306E-03,            0.,       1.33825,   30.6368E-06,   3.21095E+03
C:/ALETube/PressureUpdate/LargeStep/DeformErode/JobErode.odb,Step-1,Increment      7: Step Time =,    70.00,"TUBE-1",         17751,   5.87785E-03,   8.09017E-03,       1.35000,NA,NA,"",   10.0309E-03,            0.,       1.35074,   30.8843E-06,   3.23616E+03
C:/ALETube/PressureUpdate/LargeStep/DeformErode/JobErode.odb,Step-1,Increment      7: Step Time =,    70.00,"TUBE-1",         17717,   7.07107E-03,   7.07107E-03,       1.35000,NA,NA,"",   10.0309E-03,            0.,       1.35074,   30.9227E-06,   3.24086E+03
C:/ALETube/PressureUpdate/LargeStep/DeformErode/JobErode.odb,Step-1,Increment      7: Step Time =,    70.00,"TUBE-1",         17915,   5.87785E-03,   8.09017E-03,       1.36250,NA,NA,"",   10.0312E-03,            0.,       1.36323,   31.1699E-06,   3.26602E+03
C:/ALETube/PressureUpdate/LargeStep/DeformErode/JobErode.odb,Step-1,Increment      7: Step Time =,    70.00,"TUBE-1",         17881,   7.07107E-03,   7.07107E-03,       1.36250,NA,NA,"",   10.0312E-03,            0.,       1.36323,   31.2086E-06,   3.27076E+03
C:/ALETube/PressureUpdate/LargeStep/DeformErode/JobErode.odb,Step-1,Increment      7: Step Time =,    70.00,"TUBE-1",         18079,   5.87785E-03,   8.09017E-03,         1.375,NA,NA,"",   10.0315E-03,  -867.362E-21,       1.37572,   31.4554E-06,   3.29587E+03
C:/ALETube/PressureUpdate/LargeStep/DeformErode/JobErode.odb,Step-1,Increment      7: Step Time =,    70.00,"TUBE-1",         18045,   7.07107E-03,   7.07107E-03,         1.375,NA,NA,"",   10.0315E-03,            0.,       1.37572,   31.4945E-06,   3.30065E+03
C:/ALETube/PressureUpdate/LargeStep/DeformErode/JobErode.odb,Step-1,Increment      7: Step Time =,    70.00,"TUBE-1",         18209,   7.07107E-03,   7.07107E-03,       1.38750,NA,NA,"",   10.0318E-03,            0.,       1.38821,   31.7803E-06,   3.33055E+03
C:/ALETube/PressureUpdate/LargeStep/DeformErode/JobErode.odb,Step-1,Increment      7: Step Time =,    70.00,"TUBE-1",         18243,   5.87785E-03,   8.09017E-03,       1.38750,NA,NA,"",   10.0317E-03,  -867.362E-21,       1.38821,   31.7409E-06,   3.32573E+03
C:/ALETube/PressureUpdate/LargeStep/DeformErode/JobErode.odb,Step-1,Increment      7: Step Time =,    70.00,"TUBE-1",         18407,   5.87785E-03,   8.09017E-03,       1.40000,NA,NA,"",   10.0320E-03,  -867.362E-21,       1.40069,   32.0264E-06,   3.35558E+03
C:/ALETube/PressureUpdate/LargeStep/DeformErode/JobErode.odb,Step-1,Increment      7: Step Time =,    70.00,"TUBE-1",         18373,   7.07107E-03,   7.07107E-03,       1.40000,NA,NA,"",   10.0321E-03,            0.,       1.40069,   32.0662E-06,   3.36044E+03
C:/ALETube/PressureUpdate/LargeStep/DeformErode/JobErode.odb,Step-1,Increment      7: Step Time =,    70.00,"TUBE-1",         18571,   5.87785E-03,   8.09017E-03,       1.41250,NA,NA,"",   10.0323E-03,  -867.362E-21,       1.41318,   32.3119E-06,   3.38542E+03
C:/ALETube/PressureUpdate/LargeStep/DeformErode/JobErode.odb,Step-1,Increment      7: Step Time =,    70.00,"TUBE-1",         18537,   7.07107E-03,   7.07107E-03,       1.41250,NA,NA,"",   10.0324E-03,            0.,       1.41318,   32.3520E-06,   3.39033E+03
C:/ALETube/PressureUpdate/LargeStep/DeformErode/JobErode.odb,Step-1,Increment      7: Step Time =,    70.00,"TUBE-1",         18735,   5.87785E-03,   8.09017E-03,       1.42500,NA,NA,"",   10.0326E-03,            0.,       1.42567,   32.5974E-06,   3.41527E+03
C:/ALETube/PressureUpdate/LargeStep/DeformErode/JobErode.odb,Step-1,Increment      7: Step Time =,    70.00,"TUBE-1",         18701,   7.07107E-03,   7.07107E-03,       1.42500,NA,NA,"",   10.0326E-03,            0.,       1.42567,   32.6379E-06,   3.42022E+03
C:/ALETube/PressureUpdate/LargeStep/DeformErode/JobErode.odb,Step-1,Increment      7: Step Time =,    70.00,"TUBE-1",         18899,   5.87785E-03,   8.09017E-03,        1.4375,NA,NA,"",   10.0329E-03,   867.362E-21,       1.43816,   32.8829E-06,   3.44512E+03
C:/ALETube/PressureUpdate/LargeStep/DeformErode/JobErode.odb,Step-1,Increment      7: Step Time =,    70.00,"TUBE-1",         18865,   7.07107E-03,   7.07107E-03,        1.4375,NA,NA,"",   10.0329E-03,            0.,       1.43816,   32.9237E-06,   3.45011E+03
C:/ALETube/PressureUpdate/LargeStep/DeformErode/JobErode.odb,Step-1,Increment      7: Step Time =,    70.00,"TUBE-1",         19029,   7.07107E-03,   7.07107E-03,       1.45000,NA,NA,"",   10.0332E-03,            0.,       1.45065,   33.2095E-06,   3.47999E+03
C:/ALETube/PressureUpdate/LargeStep/DeformErode/JobErode.odb,Step-1,Increment      7: Step Time =,    70.00,"TUBE-1",         19063,   5.87785E-03,   8.09017E-03,       1.45000,NA,NA,"",   10.0332E-03,            0.,       1.45065,   33.1684E-06,   3.47496E+03
C:/ALETube/PressureUpdate/LargeStep/DeformErode/JobErode.odb,Step-1,Increment      7: Step Time =,    70.00,"TUBE-1",         19227,   5.87785E-03,   8.09017E-03,       1.46250,NA,NA,"",   10.0335E-03,            0.,       1.46313,   33.4538E-06,   3.50480E+03
C:/ALETube/PressureUpdate/LargeStep/DeformErode/JobErode.odb,Step-1,Increment      7: Step Time =,    70.00,"TUBE-1",         19193,   7.07107E-03,   7.07107E-03,       1.46250,NA,NA,"",   10.0335E-03,            0.,       1.46313,   33.4953E-06,   3.50987E+03
C:/ALETube/PressureUpdate/LargeStep/DeformErode/JobErode.odb,Step-1,Increment      7: Step Time =,    70.00,"TUBE-1",         19391,   5.87785E-03,   8.09017E-03,       1.47500,NA,NA,"",   10.0337E-03,            0.,       1.47562,   33.7393E-06,   3.53463E+03
C:/ALETube/PressureUpdate/LargeStep/DeformErode/JobErode.odb,Step-1,Increment      7: Step Time =,    70.00,"TUBE-1",         19357,   7.07107E-03,   7.07107E-03,       1.47500,NA,NA,"",   10.0338E-03,            0.,       1.47562,   33.7812E-06,   3.53976E+03
C:/ALETube/PressureUpdate/LargeStep/DeformErode/JobErode.odb,Step-1,Increment      7: Step Time =,    70.00,"TUBE-1",         19555,   5.87785E-03,   8.09017E-03,       1.48750,NA,NA,"",   10.0340E-03,            0.,       1.48811,   34.0247E-06,   3.56447E+03
C:/ALETube/PressureUpdate/LargeStep/DeformErode/JobErode.odb,Step-1,Increment      7: Step Time =,    70.00,"TUBE-1",         19521,   7.07107E-03,   7.07107E-03,       1.48750,NA,NA,"",   10.0341E-03,            0.,       1.48811,   34.0669E-06,   3.56963E+03
C:/ALETube/PressureUpdate/LargeStep/DeformErode/JobErode.odb,Step-1,Increment      7: Step Time =,    70.00,"TUBE-1",         19719,   5.87785E-03,   8.09017E-03,           1.5,NA,NA,"",   10.0343E-03,            0.,       1.50059,   34.3102E-06,   3.59430E+03
C:/ALETube/PressureUpdate/LargeStep/DeformErode/JobErode.odb,Step-1,Increment      7: Step Time =,    70.00,"TUBE-1",         19685,   7.07107E-03,   7.07107E-03,           1.5,NA,NA,"",   10.0344E-03,            0.,       1.50059,   34.3527E-06,   3.59951E+03
C:/ALETube/PressureUpdate/LargeStep/DeformErode/JobErode.odb,Step-1,Increment      7: Step Time =,    70.00,"TUBE-1",         19849,   7.07107E-03,   7.07107E-03,       1.51250,NA,NA,"",   10.0346E-03,            0.,       1.51308,   34.6385E-06,   3.62939E+03
C:/ALETube/PressureUpdate/LargeStep/DeformErode/JobErode.odb,Step-1,Increment      7: Step Time =,    70.00,"TUBE-1",         19883,   5.87785E-03,   8.09017E-03,       1.51250,NA,NA,"",   10.0346E-03,            0.,       1.51308,   34.5956E-06,   3.62414E+03
C:/ALETube/PressureUpdate/LargeStep/DeformErode/JobErode.odb,Step-1,Increment      7: Step Time =,    70.00,"TUBE-1",         20047,   5.87785E-03,   8.09017E-03,       1.52500,NA,NA,"",   10.0349E-03,            0.,       1.52557,   34.8810E-06,   3.65397E+03
C:/ALETube/PressureUpdate/LargeStep/DeformErode/JobErode.odb,Step-1,Increment      7: Step Time =,    70.00,"TUBE-1",         20013,   7.07107E-03,   7.07107E-03,       1.52500,NA,NA,"",   10.0349E-03,            0.,       1.52557,   34.9243E-06,   3.65926E+03
C:/ALETube/PressureUpdate/LargeStep/DeformErode/JobErode.odb,Step-1,Increment      7: Step Time =,    70.00,"TUBE-1",         20211,   5.87785E-03,   8.09017E-03,       1.53750,NA,NA,"",   10.0352E-03,            0.,       1.53806,   35.1664E-06,   3.68379E+03
C:/ALETube/PressureUpdate/LargeStep/DeformErode/JobErode.odb,Step-1,Increment      7: Step Time =,    70.00,"TUBE-1",         20177,   7.07107E-03,   7.07107E-03,       1.53750,NA,NA,"",   10.0352E-03,            0.,       1.53806,   35.2101E-06,   3.68913E+03
C:/ALETube/PressureUpdate/LargeStep/DeformErode/JobErode.odb,Step-1,Increment      7: Step Time =,    70.00,"TUBE-1",         20375,   5.87785E-03,   8.09017E-03,       1.55000,NA,NA,"",   10.0355E-03,   867.362E-21,       1.55054,   35.4518E-06,   3.71362E+03
C:/ALETube/PressureUpdate/LargeStep/DeformErode/JobErode.odb,Step-1,Increment      7: Step Time =,    70.00,"TUBE-1",         20341,   7.07107E-03,   7.07107E-03,       1.55000,NA,NA,"",   10.0355E-03,            0.,       1.55054,   35.4958E-06,   3.71900E+03
C:/ALETube/PressureUpdate/LargeStep/DeformErode/JobErode.odb,Step-1,Increment      7: Step Time =,    70.00,"TUBE-1",         20539,   5.87785E-03,   8.09017E-03,        1.5625,NA,NA,"",   10.0357E-03,  -867.362E-21,       1.56303,   35.7372E-06,   3.74344E+03
C:/ALETube/PressureUpdate/LargeStep/DeformErode/JobErode.odb,Step-1,Increment      7: Step Time =,    70.00,"TUBE-1",         20505,   7.07107E-03,   7.07107E-03,        1.5625,NA,NA,"",   10.0358E-03,            0.,       1.56303,   35.7816E-06,   3.74886E+03
C:/ALETube/PressureUpdate/LargeStep/DeformErode/JobErode.odb,Step-1,Increment      7: Step Time =,    70.00,"TUBE-1",         20669,   7.07107E-03,   7.07107E-03,       1.57500,NA,NA,"",   10.0361E-03,            0.,       1.57552,   36.0673E-06,   3.77873E+03
C:/ALETube/PressureUpdate/LargeStep/DeformErode/JobErode.odb,Step-1,Increment      7: Step Time =,    70.00,"TUBE-1",         20703,   5.87785E-03,   8.09017E-03,       1.57500,NA,NA,"",   10.0360E-03,  -867.362E-21,       1.57552,   36.0226E-06,   3.77327E+03
C:/ALETube/PressureUpdate/LargeStep/DeformErode/JobErode.odb,Step-1,Increment      7: Step Time =,    70.00,"TUBE-1",         20867,   5.87785E-03,   8.09017E-03,       1.58750,NA,NA,"",   10.0363E-03,  -867.362E-21,       1.58800,   36.3080E-06,   3.80308E+03
C:/ALETube/PressureUpdate/LargeStep/DeformErode/JobErode.odb,Step-1,Increment      7: Step Time =,    70.00,"TUBE-1",         20833,   7.07107E-03,   7.07107E-03,       1.58750,NA,NA,"",   10.0364E-03,            0.,       1.58800,   36.3530E-06,   3.80859E+03
C:/ALETube/PressureUpdate/LargeStep/DeformErode/JobErode.odb,Step-1,Increment      7: Step Time =,    70.00,"TUBE-1",         21031,   5.87785E-03,   8.09017E-03,       1.60000,NA,NA,"",   10.0366E-03,            0.,       1.60049,   36.5933E-06,   3.83290E+03
C:/ALETube/PressureUpdate/LargeStep/DeformErode/JobErode.odb,Step-1,Increment      7: Step Time =,    70.00,"TUBE-1",         20997,   7.07107E-03,   7.07107E-03,       1.60000,NA,NA,"",   10.0366E-03,            0.,       1.60049,   36.6387E-06,   3.83845E+03
C:/ALETube/PressureUpdate/LargeStep/DeformErode/JobErode.odb,Step-1,Increment      7: Step Time =,    70.00,"TUBE-1",         21195,   5.87785E-03,   8.09017E-03,       1.61250,NA,NA,"",   10.0369E-03,            0.,       1.61298,   36.8788E-06,   3.86272E+03
C:/ALETube/PressureUpdate/LargeStep/DeformErode/JobErode.odb,Step-1,Increment      7: Step Time =,    70.00,"TUBE-1",         21161,   7.07107E-03,   7.07107E-03,       1.61250,NA,NA,"",   10.0369E-03,            0.,       1.61298,   36.9245E-06,   3.86831E+03
C:/ALETube/PressureUpdate/LargeStep/DeformErode/JobErode.odb,Step-1,Increment      7: Step Time =,    70.00,"TUBE-1",         21359,   5.87785E-03,   8.09017E-03,         1.625,NA,NA,"",   10.0372E-03,  -867.362E-21,       1.62546,   37.1639E-06,   3.89253E+03
C:/ALETube/PressureUpdate/LargeStep/DeformErode/JobErode.odb,Step-1,Increment      7: Step Time =,    70.00,"TUBE-1",         21325,   7.07107E-03,   7.07107E-03,         1.625,NA,NA,"",   10.0372E-03,            0.,       1.62546,   37.2100E-06,   3.89816E+03
C:/ALETube/PressureUpdate/LargeStep/DeformErode/JobErode.odb,Step-1,Increment      7: Step Time =,    70.00,"TUBE-1",         21489,   7.07107E-03,   7.07107E-03,       1.63750,NA,NA,"",   10.0375E-03,            0.,       1.63795,   37.4952E-06,   3.92796E+03
C:/ALETube/PressureUpdate/LargeStep/DeformErode/JobErode.odb,Step-1,Increment      7: Step Time =,    70.00,"TUBE-1",         21523,   5.87785E-03,   8.09017E-03,       1.63750,NA,NA,"",   10.0374E-03,            0.,       1.63795,   37.4488E-06,   3.92228E+03
C:/ALETube/PressureUpdate/LargeStep/DeformErode/JobErode.odb,Step-1,Increment      7: Step Time =,    70.00,"TUBE-1",         21687,   5.87785E-03,   8.09017E-03,       1.65000,NA,NA,"",   10.0377E-03,            0.,       1.65043,   37.7392E-06,   3.95252E+03
C:/ALETube/PressureUpdate/LargeStep/DeformErode/JobErode.odb,Step-1,Increment      7: Step Time =,    70.00,"TUBE-1",         21653,   7.07107E-03,   7.07107E-03,       1.65000,NA,NA,"",   10.0378E-03,            0.,       1.65043,   37.7859E-06,   3.95824E+03
C:/ALETube/PressureUpdate/LargeStep/DeformErode/JobErode.odb,Step-1,Increment      7: Step Time =,    70.00,"TUBE-1",         21851,   5.87785E-03,   8.09017E-03,       1.66250,NA,NA,"",   10.0380E-03,            0.,       1.66292,   38.0115E-06,   3.98082E+03
C:/ALETube/PressureUpdate/LargeStep/DeformErode/JobErode.odb,Step-1,Increment      7: Step Time =,    70.00,"TUBE-1",         21817,   7.07107E-03,   7.07107E-03,       1.66250,NA,NA,"",   10.0381E-03,            0.,       1.66292,   38.0586E-06,   3.98659E+03
C:/ALETube/PressureUpdate/LargeStep/DeformErode/JobErode.odb,Step-1,Increment      7: Step Time =,    70.00,"TUBE-1",         22015,   5.87785E-03,   8.09017E-03,       1.67500,NA,NA,"",   10.0382E-03,  -867.362E-21,       1.67541,   38.2383E-06,   4.00508E+03
C:/ALETube/PressureUpdate/LargeStep/DeformErode/JobErode.odb,Step-1,Increment      7: Step Time =,    70.00,"TUBE-1",         21981,   7.07107E-03,   7.07107E-03,       1.67500,NA,NA,"",   10.0383E-03,            0.,       1.67541,   38.2858E-06,   4.01088E+03
C:/ALETube/PressureUpdate/LargeStep/DeformErode/JobErode.odb,Step-1,Increment      7: Step Time =,    70.00,"TUBE-1",         22179,   5.87785E-03,   8.09017E-03,        1.6875,NA,NA,"",   10.0385E-03,            0.,       1.68789,   38.5276E-06,   4.03498E+03
C:/ALETube/PressureUpdate/LargeStep/DeformErode/JobErode.odb,Step-1,Increment      7: Step Time =,    70.00,"TUBE-1",         22145,   7.07107E-03,   7.07107E-03,        1.6875,NA,NA,"",   10.0386E-03,            0.,       1.68789,   38.5754E-06,   4.04083E+03
C:/ALETube/PressureUpdate/LargeStep/DeformErode/JobErode.odb,Step-1,Increment      7: Step Time =,    70.00,"TUBE-1",         22309,   7.07107E-03,   7.07107E-03,       1.70000,NA,NA,"",   10.0389E-03,            0.,       1.70038,   38.8649E-06,   4.07106E+03
C:/ALETube/PressureUpdate/LargeStep/DeformErode/JobErode.odb,Step-1,Increment      7: Step Time =,    70.00,"TUBE-1",         22343,   5.87785E-03,   8.09017E-03,       1.70000,NA,NA,"",   10.0388E-03,            0.,       1.70038,   38.8167E-06,   4.06517E+03
C:/ALETube/PressureUpdate/LargeStep/DeformErode/JobErode.odb,Step-1,Increment      7: Step Time =,    70.00,"TUBE-1",         22507,   5.87785E-03,   8.09017E-03,       1.71250,NA,NA,"",   10.0391E-03,            0.,       1.71286,   39.1005E-06,   4.09481E+03
C:/ALETube/PressureUpdate/LargeStep/DeformErode/JobErode.odb,Step-1,Increment      7: Step Time =,    70.00,"TUBE-1",         22473,   7.07107E-03,   7.07107E-03,       1.71250,NA,NA,"",   10.0391E-03,            0.,       1.71286,   39.1490E-06,   4.10074E+03
C:/ALETube/PressureUpdate/LargeStep/DeformErode/JobErode.odb,Step-1,Increment      7: Step Time =,    70.00,"TUBE-1",         22671,   5.87785E-03,   8.09017E-03,       1.72500,NA,NA,"",   10.0394E-03,  -867.362E-21,       1.72535,   39.3860E-06,   4.12465E+03
C:/ALETube/PressureUpdate/LargeStep/DeformErode/JobErode.odb,Step-1,Increment      7: Step Time =,    70.00,"TUBE-1",         22637,   7.07107E-03,   7.07107E-03,       1.72500,NA,NA,"",   10.0394E-03,            0.,       1.72535,   39.4349E-06,   4.13062E+03
C:/ALETube/PressureUpdate/LargeStep/DeformErode/JobErode.odb,Step-1,Increment      7: Step Time =,    70.00,"TUBE-1",         22835,   5.87785E-03,   8.09017E-03,       1.73750,NA,NA,"",   10.0397E-03,   867.362E-21,       1.73783,   39.6715E-06,   4.15445E+03
C:/ALETube/PressureUpdate/LargeStep/DeformErode/JobErode.odb,Step-1,Increment      7: Step Time =,    70.00,"TUBE-1",         22801,   7.07107E-03,   7.07107E-03,       1.73750,NA,NA,"",   10.0397E-03,            0.,       1.73783,   39.7207E-06,   4.16047E+03
C:/ALETube/PressureUpdate/LargeStep/DeformErode/JobErode.odb,Step-1,Increment      7: Step Time =,    70.00,"TUBE-1",         22999,   5.87785E-03,   8.09017E-03,          1.75,NA,NA,"",   10.0400E-03,            0.,       1.75032,   39.9568E-06,   4.18425E+03
C:/ALETube/PressureUpdate/LargeStep/DeformErode/JobErode.odb,Step-1,Increment      7: Step Time =,    70.00,"TUBE-1",         22965,   7.07107E-03,   7.07107E-03,          1.75,NA,NA,"",   10.0400E-03,            0.,       1.75032,   40.0063E-06,   4.19031E+03
C:/ALETube/PressureUpdate/LargeStep/DeformErode/JobErode.odb,Step-1,Increment      7: Step Time =,    70.00,"TUBE-1",         23129,   7.07107E-03,   7.07107E-03,       1.76250,NA,NA,"",   10.0403E-03,            0.,       1.76280,   40.2919E-06,   4.22014E+03
C:/ALETube/PressureUpdate/LargeStep/DeformErode/JobErode.odb,Step-1,Increment      7: Step Time =,    70.00,"TUBE-1",         23163,   5.87785E-03,   8.09017E-03,       1.76250,NA,NA,"",   10.0402E-03,  -867.362E-21,       1.76280,   40.2420E-06,   4.21404E+03
C:/ALETube/PressureUpdate/LargeStep/DeformErode/JobErode.odb,Step-1,Increment      7: Step Time =,    70.00,"TUBE-1",         23327,   5.87785E-03,   8.09017E-03,       1.77500,NA,NA,"",   10.0405E-03,            0.,       1.77529,   40.5274E-06,   4.24384E+03
C:/ALETube/PressureUpdate/LargeStep/DeformErode/JobErode.odb,Step-1,Increment      7: Step Time =,    70.00,"TUBE-1",         23293,   7.07107E-03,   7.07107E-03,       1.77500,NA,NA,"",   10.0406E-03,            0.,       1.77529,   40.5776E-06,   4.24998E+03
C:/ALETube/PressureUpdate/LargeStep/DeformErode/JobErode.odb,Step-1,Increment      7: Step Time =,    70.00,"TUBE-1",         23491,   5.87785E-03,   8.09017E-03,       1.78750,NA,NA,"",   10.0408E-03,            0.,       1.78777,   40.8127E-06,   4.27363E+03
C:/ALETube/PressureUpdate/LargeStep/DeformErode/JobErode.odb,Step-1,Increment      7: Step Time =,    70.00,"TUBE-1",         23457,   7.07107E-03,   7.07107E-03,       1.78750,NA,NA,"",   10.0409E-03,            0.,       1.78777,   40.8632E-06,   4.27981E+03
C:/ALETube/PressureUpdate/LargeStep/DeformErode/JobErode.odb,Step-1,Increment      7: Step Time =,    70.00,"TUBE-1",         23655,   5.87785E-03,   8.09017E-03,       1.80000,NA,NA,"",   10.0411E-03,   867.362E-21,       1.80026,   41.0979E-06,   4.30342E+03
C:/ALETube/PressureUpdate/LargeStep/DeformErode/JobErode.odb,Step-1,Increment      7: Step Time =,    70.00,"TUBE-1",         23621,   7.07107E-03,   7.07107E-03,       1.80000,NA,NA,"",   10.0411E-03,            0.,       1.80026,   41.1488E-06,   4.30965E+03
C:/ALETube/PressureUpdate/LargeStep/DeformErode/JobErode.odb,Step-1,Increment      7: Step Time =,    70.00,"TUBE-1",         23819,   5.87785E-03,   8.09017E-03,        1.8125,NA,NA,"",   10.0414E-03,  -867.362E-21,       1.81274,   41.3832E-06,   4.33321E+03
C:/ALETube/PressureUpdate/LargeStep/DeformErode/JobErode.odb,Step-1,Increment      7: Step Time =,    70.00,"TUBE-1",         23785,   7.07107E-03,   7.07107E-03,        1.8125,NA,NA,"",   10.0414E-03,            0.,       1.81274,   41.4344E-06,   4.33948E+03
C:/ALETube/PressureUpdate/LargeStep/DeformErode/JobErode.odb,Step-1,Increment      7: Step Time =,    70.00,"TUBE-1",         23949,   7.07107E-03,   7.07107E-03,       1.82500,NA,NA,"",   10.0417E-03,            0.,       1.82523,   41.7200E-06,   4.36930E+03
C:/ALETube/PressureUpdate/LargeStep/DeformErode/JobErode.odb,Step-1,Increment      7: Step Time =,    70.00,"TUBE-1",         23983,   5.87785E-03,   8.09017E-03,       1.82500,NA,NA,"",   10.0417E-03,            0.,       1.82523,   41.6684E-06,   4.36299E+03
C:/ALETube/PressureUpdate/LargeStep/DeformErode/JobErode.odb,Step-1,Increment      7: Step Time =,    70.00,"TUBE-1",         24147,   5.87785E-03,   8.09017E-03,       1.83750,NA,NA,"",   10.0420E-03,   867.362E-21,       1.83771,   41.9537E-06,   4.39278E+03
C:/ALETube/PressureUpdate/LargeStep/DeformErode/JobErode.odb,Step-1,Increment      7: Step Time =,    70.00,"TUBE-1",         24113,   7.07107E-03,   7.07107E-03,       1.83750,NA,NA,"",   10.0420E-03,            0.,       1.83771,   42.0056E-06,   4.39912E+03
C:/ALETube/PressureUpdate/LargeStep/DeformErode/JobErode.odb,Step-1,Increment      7: Step Time =,    70.00,"TUBE-1",         24311,   5.87785E-03,   8.09017E-03,       1.85000,NA,NA,"",   10.0422E-03,  -867.362E-21,       1.85020,   42.2389E-06,   4.42255E+03
C:/ALETube/PressureUpdate/LargeStep/DeformErode/JobErode.odb,Step-1,Increment      7: Step Time =,    70.00,"TUBE-1",         24277,   7.07107E-03,   7.07107E-03,       1.85000,NA,NA,"",   10.0423E-03,            0.,       1.85020,   42.2912E-06,   4.42895E+03
C:/ALETube/PressureUpdate/LargeStep/DeformErode/JobErode.odb,Step-1,Increment      7: Step Time =,    70.00,"TUBE-1",         24475,   5.87785E-03,   8.09017E-03,       1.86250,NA,NA,"",   10.0425E-03,   867.362E-21,       1.86268,   42.5241E-06,   4.45233E+03
C:/ALETube/PressureUpdate/LargeStep/DeformErode/JobErode.odb,Step-1,Increment      7: Step Time =,    70.00,"TUBE-1",         24441,   7.07107E-03,   7.07107E-03,       1.86250,NA,NA,"",   10.0426E-03,            0.,       1.86268,   42.5767E-06,   4.45877E+03
C:/ALETube/PressureUpdate/LargeStep/DeformErode/JobErode.odb,Step-1,Increment      7: Step Time =,    70.00,"TUBE-1",         24639,   5.87785E-03,   8.09017E-03,         1.875,NA,NA,"",   10.0428E-03,  -867.362E-21,       1.87516,   42.8093E-06,   4.48211E+03
C:/ALETube/PressureUpdate/LargeStep/DeformErode/JobErode.odb,Step-1,Increment      7: Step Time =,    70.00,"TUBE-1",         24605,   7.07107E-03,   7.07107E-03,         1.875,NA,NA,"",   10.0429E-03,            0.,       1.87516,   42.8623E-06,   4.48858E+03
C:/ALETube/PressureUpdate/LargeStep/DeformErode/JobErode.odb,Step-1,Increment      7: Step Time =,    70.00,"TUBE-1",         24769,   7.07107E-03,   7.07107E-03,       1.88750,NA,NA,"",   10.0431E-03,            0.,       1.88765,   43.1478E-06,   4.51840E+03
C:/ALETube/PressureUpdate/LargeStep/DeformErode/JobErode.odb,Step-1,Increment      7: Step Time =,    70.00,"TUBE-1",         24803,   5.87785E-03,   8.09017E-03,       1.88750,NA,NA,"",   10.0431E-03,   867.362E-21,       1.88765,   43.0945E-06,   4.51188E+03
C:/ALETube/PressureUpdate/LargeStep/DeformErode/JobErode.odb,Step-1,Increment      7: Step Time =,    70.00,"TUBE-1",         24967,   5.87785E-03,   8.09017E-03,       1.90000,NA,NA,"",   10.0434E-03,   867.362E-21,       1.90013,   43.3797E-06,   4.54165E+03
C:/ALETube/PressureUpdate/LargeStep/DeformErode/JobErode.odb,Step-1,Increment      7: Step Time =,    70.00,"TUBE-1",         24933,   7.07107E-03,   7.07107E-03,       1.90000,NA,NA,"",   10.0434E-03,            0.,       1.90013,   43.4334E-06,   4.54821E+03
C:/ALETube/PressureUpdate/LargeStep/DeformErode/JobErode.odb,Step-1,Increment      7: Step Time =,    70.00,"TUBE-1",         25131,   5.87785E-03,   8.09017E-03,       1.91250,NA,NA,"",   10.0437E-03,            0.,       1.91262,   43.6648E-06,   4.57142E+03
C:/ALETube/PressureUpdate/LargeStep/DeformErode/JobErode.odb,Step-1,Increment      7: Step Time =,    70.00,"TUBE-1",         25097,   7.07107E-03,   7.07107E-03,       1.91250,NA,NA,"",   10.0437E-03,            0.,       1.91262,   43.7189E-06,   4.57802E+03
C:/ALETube/PressureUpdate/LargeStep/DeformErode/JobErode.odb,Step-1,Increment      7: Step Time =,    70.00,"TUBE-1",         25295,   5.87785E-03,   8.09017E-03,       1.92500,NA,NA,"",   10.0439E-03,            0.,       1.92510,   43.9500E-06,   4.60119E+03
C:/ALETube/PressureUpdate/LargeStep/DeformErode/JobErode.odb,Step-1,Increment      7: Step Time =,    70.00,"TUBE-1",         25261,   7.07107E-03,   7.07107E-03,       1.92500,NA,NA,"",   10.0440E-03,            0.,       1.92510,   44.0044E-06,   4.60784E+03
C:/ALETube/PressureUpdate/LargeStep/DeformErode/JobErode.odb,Step-1,Increment      7: Step Time =,    70.00,"TUBE-1",         25459,   5.87785E-03,   8.09017E-03,        1.9375,NA,NA,"",   10.0442E-03,            0.,       1.93758,   44.2350E-06,   4.63093E+03
C:/ALETube/PressureUpdate/LargeStep/DeformErode/JobErode.odb,Step-1,Increment      7: Step Time =,    70.00,"TUBE-1",         25425,   7.07107E-03,   7.07107E-03,        1.9375,NA,NA,"",   10.0443E-03,            0.,       1.93758,   44.2897E-06,   4.63762E+03
C:/ALETube/PressureUpdate/LargeStep/DeformErode/JobErode.odb,Step-1,Increment      7: Step Time =,    70.00,"TUBE-1",         25589,   7.07107E-03,   7.07107E-03,       1.95000,NA,NA,"",   10.0446E-03,            0.,       1.95007,   44.5762E-06,   4.66751E+03
C:/ALETube/PressureUpdate/LargeStep/DeformErode/JobErode.odb,Step-1,Increment      7: Step Time =,    70.00,"TUBE-1",         25623,   5.87785E-03,   8.09017E-03,       1.95000,NA,NA,"",   10.0445E-03,            0.,       1.95007,   44.5211E-06,   4.66077E+03
C:/ALETube/PressureUpdate/LargeStep/DeformErode/JobErode.odb,Step-1,Increment      7: Step Time =,    70.00,"TUBE-1",         25787,   5.87785E-03,   8.09017E-03,       1.96250,NA,NA,"",   10.0448E-03,            0.,       1.96255,   44.8031E-06,   4.69028E+03
C:/ALETube/PressureUpdate/LargeStep/DeformErode/JobErode.odb,Step-1,Increment      7: Step Time =,    70.00,"TUBE-1",         25753,   7.07107E-03,   7.07107E-03,       1.96250,NA,NA,"",   10.0449E-03,            0.,       1.96255,   44.8583E-06,   4.69703E+03
C:/ALETube/PressureUpdate/LargeStep/DeformErode/JobErode.odb,Step-1,Increment      7: Step Time =,    70.00,"TUBE-1",         25951,   5.87785E-03,   8.09017E-03,       1.97500,NA,NA,"",   10.0451E-03,            0.,       1.97503,   45.0905E-06,   4.72010E+03
C:/ALETube/PressureUpdate/LargeStep/DeformErode/JobErode.odb,Step-1,Increment      7: Step Time =,    70.00,"TUBE-1",         25917,   7.07107E-03,   7.07107E-03,       1.97500,NA,NA,"",   10.0451E-03,            0.,       1.97503,   45.1459E-06,   4.72692E+03
C:/ALETube/PressureUpdate/LargeStep/DeformErode/JobErode.odb,Step-1,Increment      7: Step Time =,    70.00,"TUBE-1",         26115,   5.87785E-03,   8.09017E-03,       1.98750,NA,NA,"",   10.0454E-03,  -867.362E-21,       1.98751,   45.3979E-06,   4.75159E+03
C:/ALETube/PressureUpdate/LargeStep/DeformErode/JobErode.odb,Step-1,Increment      7: Step Time =,    70.00,"TUBE-1",         26081,   7.07107E-03,   7.07107E-03,       1.98750,NA,NA,"",   10.0455E-03,            0.,       1.98751,   45.4567E-06,   4.75866E+03
C:/ALETube/PressureUpdate/LargeStep/DeformErode/JobErode.odb,Step-1,Increment      7: Step Time =,    70.00,"TUBE-1",         26279,   5.87785E-03,   8.09017E-03,            2.,NA,NA,"",   10.0456E-03,            0.,            2.,   45.5543E-06,   4.76308E+03
C:/ALETube/PressureUpdate/LargeStep/DeformErode/JobErode.odb,Step-1,Increment      7: Step Time =,    70.00,"TUBE-1",         26245,   7.07107E-03,   7.07107E-03,            2.,NA,NA,"",   10.0456E-03,            0.,            2.,   45.6046E-06,   4.77205E+03
C:/ALETube/PressureUpdate/LargeStep/DeformErode/JobErode.odb,Step-1,Increment      8: Step Time =,    80.00,"TUBE-1",            39,   5.87785E-03,   8.09017E-03,            0.,NA,NA,"",   9.99990E-03,            0.,   1.33225E-03,  -95.0861E-09,       6.39795
C:/ALETube/PressureUpdate/LargeStep/DeformErode/JobErode.odb,Step-1,Increment      8: Step Time =,    80.00,"TUBE-1",             5,   7.07107E-03,   7.07107E-03,            0.,NA,NA,"",   9.99990E-03,            0.,   1.33225E-03,  -94.7153E-09,       6.39071
C:/ALETube/PressureUpdate/LargeStep/DeformErode/JobErode.odb,Step-1,Increment      8: Step Time =,    80.00,"TUBE-1",           203,   5.87785E-03,   8.09017E-03,   12.5000E-03,NA,NA,"",   10.0002E-03,            0.,   13.8368E-03,   229.892E-09,       22.9694
C:/ALETube/PressureUpdate/LargeStep/DeformErode/JobErode.odb,Step-1,Increment      8: Step Time =,    80.00,"TUBE-1",           169,   7.07107E-03,   7.07107E-03,   12.5000E-03,NA,NA,"",   10.0002E-03,            0.,   13.8355E-03,   230.450E-09,       23.0286
C:/ALETube/PressureUpdate/LargeStep/DeformErode/JobErode.odb,Step-1,Increment      8: Step Time =,    80.00,"TUBE-1",           333,   7.07107E-03,   7.07107E-03,   25.0000E-03,NA,NA,"",   10.0005E-03,            0.,   26.3323E-03,   493.373E-09,       52.5659
C:/ALETube/PressureUpdate/LargeStep/DeformErode/JobErode.odb,Step-1,Increment      8: Step Time =,    80.00,"TUBE-1",           367,   5.87785E-03,   8.09017E-03,   25.0000E-03,NA,NA,"",   10.0005E-03,            0.,   26.3324E-03,   492.298E-09,       52.4436
C:/ALETube/PressureUpdate/LargeStep/DeformErode/JobErode.odb,Step-1,Increment      8: Step Time =,    80.00,"TUBE-1",           531,   5.87785E-03,   8.09017E-03,   37.5000E-03,NA,NA,"",   10.0008E-03,            0.,   38.8319E-03,   777.985E-09,       81.4616
C:/ALETube/PressureUpdate/LargeStep/DeformErode/JobErode.odb,Step-1,Increment      8: Step Time =,    80.00,"TUBE-1",           497,   7.07107E-03,   7.07107E-03,   37.5000E-03,NA,NA,"",   10.0008E-03,            0.,   38.8319E-03,   779.626E-09,       81.6468
C:/ALETube/PressureUpdate/LargeStep/DeformErode/JobErode.odb,Step-1,Increment      8: Step Time =,    80.00,"TUBE-1",           695,   5.87785E-03,   8.09017E-03,   50.0000E-03,NA,NA,"",   10.0011E-03,            0.,   51.3315E-03,   1.05612E-06,       111.063
C:/ALETube/PressureUpdate/LargeStep/DeformErode/JobErode.odb,Step-1,Increment      8: Step Time =,    80.00,"TUBE-1",           661,   7.07107E-03,   7.07107E-03,   50.0000E-03,NA,NA,"",   10.0011E-03,            0.,   51.3315E-03,   1.05830E-06,       111.310
C:/ALETube/PressureUpdate/LargeStep/DeformErode/JobErode.odb,Step-1,Increment      8: Step Time =,    80.00,"TUBE-1",           825,   7.07107E-03,   7.07107E-03,      62.5E-03,NA,NA,"",   10.0013E-03,            0.,   63.8311E-03,   1.33982E-06,       140.663
C:/ALETube/PressureUpdate/LargeStep/DeformErode/JobErode.odb,Step-1,Increment      8: Step Time =,    80.00,"TUBE-1",           859,   5.87785E-03,   8.09017E-03,      62.5E-03,NA,NA,"",   10.0013E-03,  -867.362E-21,   63.8311E-03,   1.33709E-06,       140.354
C:/ALETube/PressureUpdate/LargeStep/DeformErode/JobErode.odb,Step-1,Increment      8: Step Time =,    80.00,"TUBE-1",          1023,   5.87785E-03,   8.09017E-03,   75.0000E-03,NA,NA,"",   10.0016E-03,            0.,   76.3305E-03,   1.61669E-06,       169.792
C:/ALETube/PressureUpdate/LargeStep/DeformErode/JobErode.odb,Step-1,Increment      8: Step Time =,    80.00,"TUBE-1",           989,   7.07107E-03,   7.07107E-03,   75.0000E-03,NA,NA,"",   10.0016E-03,            0.,   76.3305E-03,   1.61997E-06,       170.163
C:/ALETube/PressureUpdate/LargeStep/DeformErode/JobErode.odb,Step-1,Increment      8: Step Time =,    80.00,"TUBE-1",          1187,   5.87785E-03,   8.09017E-03,   87.5000E-03,NA,NA,"",   10.0019E-03,            0.,   88.8298E-03,   1.89691E-06,       199.161
C:/ALETube/PressureUpdate/LargeStep/DeformErode/JobErode.odb,Step-1,Increment      8: Step Time =,    80.00,"TUBE-1",          1153,   7.07107E-03,   7.07107E-03,   87.5000E-03,NA,NA,"",   10.0019E-03,            0.,   88.8298E-03,   1.90074E-06,       199.594
C:/ALETube/PressureUpdate/LargeStep/DeformErode/JobErode.odb,Step-1,Increment      8: Step Time =,    80.00,"TUBE-1",          1351,   5.87785E-03,   8.09017E-03,   100.000E-03,NA,NA,"",   10.0022E-03,            0.,   101.329E-03,   2.17681E-06,       228.558
C:/ALETube/PressureUpdate/LargeStep/DeformErode/JobErode.odb,Step-1,Increment      8: Step Time =,    80.00,"TUBE-1",          1317,   7.07107E-03,   7.07107E-03,   100.000E-03,NA,NA,"",   10.0022E-03,            0.,   101.329E-03,   2.18118E-06,       229.053
C:/ALETube/PressureUpdate/LargeStep/DeformErode/JobErode.odb,Step-1,Increment      8: Step Time =,    80.00,"TUBE-1",          1515,   5.87785E-03,   8.09017E-03,   112.500E-03,NA,NA,"",   10.0025E-03,            0.,   113.828E-03,   2.45681E-06,       257.937
C:/ALETube/PressureUpdate/LargeStep/DeformErode/JobErode.odb,Step-1,Increment      8: Step Time =,    80.00,"TUBE-1",          1481,   7.07107E-03,   7.07107E-03,   112.500E-03,NA,NA,"",   10.0025E-03,            0.,   113.828E-03,   2.46173E-06,       258.494
C:/ALETube/PressureUpdate/LargeStep/DeformErode/JobErode.odb,Step-1,Increment      8: Step Time =,    80.00,"TUBE-1",          1645,   7.07107E-03,   7.07107E-03,      125.E-03,NA,NA,"",   10.0027E-03,            0.,   126.327E-03,   2.74219E-06,       287.939
C:/ALETube/PressureUpdate/LargeStep/DeformErode/JobErode.odb,Step-1,Increment      8: Step Time =,    80.00,"TUBE-1",          1679,   5.87785E-03,   8.09017E-03,      125.E-03,NA,NA,"",   10.0027E-03,            0.,   126.327E-03,   2.73673E-06,       287.320
C:/ALETube/PressureUpdate/LargeStep/DeformErode/JobErode.odb,Step-1,Increment      8: Step Time =,    80.00,"TUBE-1",          1843,   5.87785E-03,   8.09017E-03,   137.500E-03,NA,NA,"",   10.0030E-03,            0.,   138.826E-03,   3.01664E-06,       316.696
C:/ALETube/PressureUpdate/LargeStep/DeformErode/JobErode.odb,Step-1,Increment      8: Step Time =,    80.00,"TUBE-1",          1809,   7.07107E-03,   7.07107E-03,   137.500E-03,NA,NA,"",   10.0030E-03,            0.,   138.826E-03,   3.02265E-06,       317.377
C:/ALETube/PressureUpdate/LargeStep/DeformErode/JobErode.odb,Step-1,Increment      8: Step Time =,    80.00,"TUBE-1",          2007,   5.87785E-03,   8.09017E-03,   150.000E-03,NA,NA,"",   10.0033E-03,            0.,   151.325E-03,   3.29652E-06,       346.070
C:/ALETube/PressureUpdate/LargeStep/DeformErode/JobErode.odb,Step-1,Increment      8: Step Time =,    80.00,"TUBE-1",          1973,   7.07107E-03,   7.07107E-03,   150.000E-03,NA,NA,"",   10.0033E-03,            0.,   151.325E-03,   3.30307E-06,       346.812
C:/ALETube/PressureUpdate/LargeStep/DeformErode/JobErode.odb,Step-1,Increment      8: Step Time =,    80.00,"TUBE-1",          2171,   5.87785E-03,   8.09017E-03,   162.500E-03,NA,NA,"",   10.0036E-03,  -867.362E-21,   163.824E-03,   3.57637E-06,       375.439
C:/ALETube/PressureUpdate/LargeStep/DeformErode/JobErode.odb,Step-1,Increment      8: Step Time =,    80.00,"TUBE-1",          2137,   7.07107E-03,   7.07107E-03,   162.500E-03,NA,NA,"",   10.0036E-03,            0.,   163.824E-03,   3.58347E-06,       376.243
C:/ALETube/PressureUpdate/LargeStep/DeformErode/JobErode.odb,Step-1,Increment      8: Step Time =,    80.00,"TUBE-1",          2335,   5.87785E-03,   8.09017E-03,   175.000E-03,NA,NA,"",   10.0039E-03,  -867.362E-21,   176.322E-03,   3.85619E-06,       404.804
C:/ALETube/PressureUpdate/LargeStep/DeformErode/JobErode.odb,Step-1,Increment      8: Step Time =,    80.00,"TUBE-1",          2301,   7.07107E-03,   7.07107E-03,   175.000E-03,NA,NA,"",   10.0039E-03,            0.,   176.322E-03,   3.86384E-06,       405.671
C:/ALETube/PressureUpdate/LargeStep/DeformErode/JobErode.odb,Step-1,Increment      8: Step Time =,    80.00,"TUBE-1",          2465,   7.07107E-03,   7.07107E-03,     187.5E-03,NA,NA,"",   10.0041E-03,            0.,   188.821E-03,   4.14418E-06,       435.094
C:/ALETube/PressureUpdate/LargeStep/DeformErode/JobErode.odb,Step-1,Increment      8: Step Time =,    80.00,"TUBE-1",          2499,   5.87785E-03,   8.09017E-03,     187.5E-03,NA,NA,"",   10.0041E-03,  -867.362E-21,   188.821E-03,   4.13599E-06,       434.166
C:/ALETube/PressureUpdate/LargeStep/DeformErode/JobErode.odb,Step-1,Increment      8: Step Time =,    80.00,"TUBE-1",          2663,   5.87785E-03,   8.09017E-03,   200.000E-03,NA,NA,"",   10.0044E-03,   867.362E-21,   201.319E-03,   4.41576E-06,       463.524
C:/ALETube/PressureUpdate/LargeStep/DeformErode/JobErode.odb,Step-1,Increment      8: Step Time =,    80.00,"TUBE-1",          2629,   7.07107E-03,   7.07107E-03,   200.000E-03,NA,NA,"",   10.0044E-03,            0.,   201.319E-03,   4.42449E-06,       464.514
C:/ALETube/PressureUpdate/LargeStep/DeformErode/JobErode.odb,Step-1,Increment      8: Step Time =,    80.00,"TUBE-1",          2827,   5.87785E-03,   8.09017E-03,   212.500E-03,NA,NA,"",   10.0047E-03,  -867.362E-21,   213.817E-03,   4.69550E-06,       492.878
C:/ALETube/PressureUpdate/LargeStep/DeformErode/JobErode.odb,Step-1,Increment      8: Step Time =,    80.00,"TUBE-1",          2793,   7.07107E-03,   7.07107E-03,   212.500E-03,NA,NA,"",   10.0047E-03,            0.,   213.817E-03,   4.70478E-06,       493.930
C:/ALETube/PressureUpdate/LargeStep/DeformErode/JobErode.odb,Step-1,Increment      8: Step Time =,    80.00,"TUBE-1",          2991,   5.87785E-03,   8.09017E-03,   225.000E-03,NA,NA,"",   10.0050E-03,            0.,   226.316E-03,   4.97521E-06,       522.228
C:/ALETube/PressureUpdate/LargeStep/DeformErode/JobErode.odb,Step-1,Increment      8: Step Time =,    80.00,"TUBE-1",          2957,   7.07107E-03,   7.07107E-03,   225.000E-03,NA,NA,"",   10.0050E-03,            0.,   226.316E-03,   4.98504E-06,       523.341
C:/ALETube/PressureUpdate/LargeStep/DeformErode/JobErode.odb,Step-1,Increment      8: Step Time =,    80.00,"TUBE-1",          3155,   5.87785E-03,   8.09017E-03,   237.500E-03,NA,NA,"",   10.0053E-03,  -867.362E-21,   238.814E-03,   5.25490E-06,       551.574
C:/ALETube/PressureUpdate/LargeStep/DeformErode/JobErode.odb,Step-1,Increment      8: Step Time =,    80.00,"TUBE-1",          3121,   7.07107E-03,   7.07107E-03,   237.500E-03,NA,NA,"",   10.0053E-03,            0.,   238.814E-03,   5.26527E-06,       552.749
C:/ALETube/PressureUpdate/LargeStep/DeformErode/JobErode.odb,Step-1,Increment      8: Step Time =,    80.00,"TUBE-1",          3285,   7.07107E-03,   7.07107E-03,      250.E-03,NA,NA,"",   10.0055E-03,            0.,   251.312E-03,   5.54547E-06,       582.153
C:/ALETube/PressureUpdate/LargeStep/DeformErode/JobErode.odb,Step-1,Increment      8: Step Time =,    80.00,"TUBE-1",          3319,   5.87785E-03,   8.09017E-03,      250.E-03,NA,NA,"",   10.0055E-03,            0.,   251.312E-03,   5.53456E-06,       580.916
C:/ALETube/PressureUpdate/LargeStep/DeformErode/JobErode.odb,Step-1,Increment      8: Step Time =,    80.00,"TUBE-1",          3483,   5.87785E-03,   8.09017E-03,   262.500E-03,NA,NA,"",   10.0058E-03,            0.,   263.809E-03,   5.81419E-06,       610.255
C:/ALETube/PressureUpdate/LargeStep/DeformErode/JobErode.odb,Step-1,Increment      8: Step Time =,    80.00,"TUBE-1",          3449,   7.07107E-03,   7.07107E-03,   262.500E-03,NA,NA,"",   10.0058E-03,            0.,   263.809E-03,   5.82565E-06,       611.553
C:/ALETube/PressureUpdate/LargeStep/DeformErode/JobErode.odb,Step-1,Increment      8: Step Time =,    80.00,"TUBE-1",          3647,   5.87785E-03,   8.09017E-03,   275.000E-03,NA,NA,"",   10.0061E-03,            0.,   276.307E-03,   6.09379E-06,       639.589
C:/ALETube/PressureUpdate/LargeStep/DeformErode/JobErode.odb,Step-1,Increment      8: Step Time =,    80.00,"TUBE-1",          3613,   7.07107E-03,   7.07107E-03,   275.000E-03,NA,NA,"",   10.0061E-03,            0.,   276.307E-03,   6.10580E-06,       640.949
C:/ALETube/PressureUpdate/LargeStep/DeformErode/JobErode.odb,Step-1,Increment      8: Step Time =,    80.00,"TUBE-1",          3811,   5.87785E-03,   8.09017E-03,   287.500E-03,NA,NA,"",   10.0064E-03,  -867.362E-21,   288.805E-03,   6.37337E-06,       668.919
C:/ALETube/PressureUpdate/LargeStep/DeformErode/JobErode.odb,Step-1,Increment      8: Step Time =,    80.00,"TUBE-1",          3777,   7.07107E-03,   7.07107E-03,   287.500E-03,NA,NA,"",   10.0064E-03,            0.,   288.805E-03,   6.38592E-06,       670.341
C:/ALETube/PressureUpdate/LargeStep/DeformErode/JobErode.odb,Step-1,Increment      8: Step Time =,    80.00,"TUBE-1",          3975,   5.87785E-03,   8.09017E-03,   300.000E-03,NA,NA,"",   10.0067E-03,            0.,   301.302E-03,   6.65292E-06,       698.246
C:/ALETube/PressureUpdate/LargeStep/DeformErode/JobErode.odb,Step-1,Increment      8: Step Time =,    80.00,"TUBE-1",          3941,   7.07107E-03,   7.07107E-03,   300.000E-03,NA,NA,"",   10.0067E-03,            0.,   301.302E-03,   6.66601E-06,       699.729
C:/ALETube/PressureUpdate/LargeStep/DeformErode/JobErode.odb,Step-1,Increment      8: Step Time =,    80.00,"TUBE-1",          4105,   7.07107E-03,   7.07107E-03,     312.5E-03,NA,NA,"",   10.0069E-03,            0.,   313.800E-03,   6.94607E-06,       729.114
C:/ALETube/PressureUpdate/LargeStep/DeformErode/JobErode.odb,Step-1,Increment      8: Step Time =,    80.00,"TUBE-1",          4139,   5.87785E-03,   8.09017E-03,     312.5E-03,NA,NA,"",   10.0069E-03,            0.,   313.800E-03,   6.93244E-06,       727.568
C:/ALETube/PressureUpdate/LargeStep/DeformErode/JobErode.odb,Step-1,Increment      8: Step Time =,    80.00,"TUBE-1",          4303,   5.87785E-03,   8.09017E-03,   325.000E-03,NA,NA,"",   10.0072E-03,            0.,   326.297E-03,   7.21193E-06,       756.887
C:/ALETube/PressureUpdate/LargeStep/DeformErode/JobErode.odb,Step-1,Increment      8: Step Time =,    80.00,"TUBE-1",          4269,   7.07107E-03,   7.07107E-03,   325.000E-03,NA,NA,"",   10.0072E-03,            0.,   326.297E-03,   7.22611E-06,       758.494
C:/ALETube/PressureUpdate/LargeStep/DeformErode/JobErode.odb,Step-1,Increment      8: Step Time =,    80.00,"TUBE-1",          4467,   5.87785E-03,   8.09017E-03,   337.500E-03,NA,NA,"",   10.0075E-03,  -867.362E-21,   338.794E-03,   7.49140E-06,       786.201
C:/ALETube/PressureUpdate/LargeStep/DeformErode/JobErode.odb,Step-1,Increment      8: Step Time =,    80.00,"TUBE-1",          4433,   7.07107E-03,   7.07107E-03,   337.500E-03,NA,NA,"",   10.0075E-03,            0.,   338.794E-03,   7.50612E-06,       787.870
C:/ALETube/PressureUpdate/LargeStep/DeformErode/JobErode.odb,Step-1,Increment      8: Step Time =,    80.00,"TUBE-1",          4631,   5.87785E-03,   8.09017E-03,   350.000E-03,NA,NA,"",   10.0078E-03,            0.,   351.291E-03,   7.77084E-06,       815.512
C:/ALETube/PressureUpdate/LargeStep/DeformErode/JobErode.odb,Step-1,Increment      8: Step Time =,    80.00,"TUBE-1",          4597,   7.07107E-03,   7.07107E-03,   350.000E-03,NA,NA,"",   10.0078E-03,            0.,   351.291E-03,   7.78610E-06,       817.242
C:/ALETube/PressureUpdate/LargeStep/DeformErode/JobErode.odb,Step-1,Increment      8: Step Time =,    80.00,"TUBE-1",          4795,   5.87785E-03,   8.09017E-03,   362.500E-03,NA,NA,"",   10.0081E-03,   867.362E-21,   363.788E-03,   8.05025E-06,       844.819
C:/ALETube/PressureUpdate/LargeStep/DeformErode/JobErode.odb,Step-1,Increment      8: Step Time =,    80.00,"TUBE-1",          4761,   7.07107E-03,   7.07107E-03,   362.500E-03,NA,NA,"",   10.0081E-03,            0.,   363.788E-03,   8.06606E-06,       846.610
C:/ALETube/PressureUpdate/LargeStep/DeformErode/JobErode.odb,Step-1,Increment      8: Step Time =,    80.00,"TUBE-1",          4925,   7.07107E-03,   7.07107E-03,      375.E-03,NA,NA,"",   10.0083E-03,            0.,   376.285E-03,   8.34599E-06,       875.975
C:/ALETube/PressureUpdate/LargeStep/DeformErode/JobErode.odb,Step-1,Increment      8: Step Time =,    80.00,"TUBE-1",          4959,   5.87785E-03,   8.09017E-03,      375.E-03,NA,NA,"",   10.0083E-03,            0.,   376.285E-03,   8.32963E-06,       874.122
C:/ALETube/PressureUpdate/LargeStep/DeformErode/JobErode.odb,Step-1,Increment      8: Step Time =,    80.00,"TUBE-1",          5123,   5.87785E-03,   8.09017E-03,   387.500E-03,NA,NA,"",   10.0086E-03,            0.,   388.782E-03,   8.60899E-06,       903.420
C:/ALETube/PressureUpdate/LargeStep/DeformErode/JobErode.odb,Step-1,Increment      8: Step Time =,    80.00,"TUBE-1",          5089,   7.07107E-03,   7.07107E-03,   387.500E-03,NA,NA,"",   10.0086E-03,            0.,   388.782E-03,   8.62589E-06,       905.335
C:/ALETube/PressureUpdate/LargeStep/DeformErode/JobErode.odb,Step-1,Increment      8: Step Time =,    80.00,"TUBE-1",          5287,   5.87785E-03,   8.09017E-03,   400.000E-03,NA,NA,"",   10.0089E-03,            0.,   401.279E-03,   8.88832E-06,       932.715
C:/ALETube/PressureUpdate/LargeStep/DeformErode/JobErode.odb,Step-1,Increment      8: Step Time =,    80.00,"TUBE-1",          5253,   7.07107E-03,   7.07107E-03,   400.000E-03,NA,NA,"",   10.0089E-03,            0.,   401.279E-03,   8.90576E-06,       934.691
C:/ALETube/PressureUpdate/LargeStep/DeformErode/JobErode.odb,Step-1,Increment      8: Step Time =,    80.00,"TUBE-1",          5451,   5.87785E-03,   8.09017E-03,   412.500E-03,NA,NA,"",   10.0092E-03,  -867.362E-21,   413.775E-03,   9.16762E-06,       962.006
C:/ALETube/PressureUpdate/LargeStep/DeformErode/JobErode.odb,Step-1,Increment      8: Step Time =,    80.00,"TUBE-1",          5417,   7.07107E-03,   7.07107E-03,   412.500E-03,NA,NA,"",   10.0092E-03,            0.,   413.775E-03,   9.18560E-06,       964.044
C:/ALETube/PressureUpdate/LargeStep/DeformErode/JobErode.odb,Step-1,Increment      8: Step Time =,    80.00,"TUBE-1",          5615,   5.87785E-03,   8.09017E-03,   425.000E-03,NA,NA,"",   10.0094E-03,            0.,   426.272E-03,   9.44690E-06,       991.293
C:/ALETube/PressureUpdate/LargeStep/DeformErode/JobErode.odb,Step-1,Increment      8: Step Time =,    80.00,"TUBE-1",          5581,   7.07107E-03,   7.07107E-03,   425.000E-03,NA,NA,"",   10.0095E-03,            0.,   426.272E-03,   9.46542E-06,       993.392
C:/ALETube/PressureUpdate/LargeStep/DeformErode/JobErode.odb,Step-1,Increment      8: Step Time =,    80.00,"TUBE-1",          5745,   7.07107E-03,   7.07107E-03,     437.5E-03,NA,NA,"",   10.0097E-03,            0.,   438.768E-03,   9.74521E-06,   1.02274E+03
C:/ALETube/PressureUpdate/LargeStep/DeformErode/JobErode.odb,Step-1,Increment      8: Step Time =,    80.00,"TUBE-1",          5779,   5.87785E-03,   8.09017E-03,     437.5E-03,NA,NA,"",   10.0097E-03,            0.,   438.768E-03,   9.72615E-06,   1.02058E+03
C:/ALETube/PressureUpdate/LargeStep/DeformErode/JobErode.odb,Step-1,Increment      8: Step Time =,    80.00,"TUBE-1",          5943,   5.87785E-03,   8.09017E-03,   450.000E-03,NA,NA,"",   10.0100E-03,            0.,   451.265E-03,   10.0054E-06,   1.04985E+03
C:/ALETube/PressureUpdate/LargeStep/DeformErode/JobErode.odb,Step-1,Increment      8: Step Time =,    80.00,"TUBE-1",          5909,   7.07107E-03,   7.07107E-03,   450.000E-03,NA,NA,"",   10.0100E-03,            0.,   451.265E-03,   10.0250E-06,   1.05208E+03
C:/ALETube/PressureUpdate/LargeStep/DeformErode/JobErode.odb,Step-1,Increment      8: Step Time =,    80.00,"TUBE-1",          6107,   5.87785E-03,   8.09017E-03,   462.500E-03,NA,NA,"",   10.0103E-03,            0.,   463.761E-03,   10.2846E-06,   1.07913E+03
C:/ALETube/PressureUpdate/LargeStep/DeformErode/JobErode.odb,Step-1,Increment      8: Step Time =,    80.00,"TUBE-1",          6073,   7.07107E-03,   7.07107E-03,   462.500E-03,NA,NA,"",   10.0103E-03,            0.,   463.761E-03,   10.3047E-06,   1.08141E+03
C:/ALETube/PressureUpdate/LargeStep/DeformErode/JobErode.odb,Step-1,Increment      8: Step Time =,    80.00,"TUBE-1",          6271,   5.87785E-03,   8.09017E-03,   475.000E-03,NA,NA,"",   10.0106E-03,            0.,   476.257E-03,   10.5637E-06,   1.10840E+03
C:/ALETube/PressureUpdate/LargeStep/DeformErode/JobErode.odb,Step-1,Increment      8: Step Time =,    80.00,"TUBE-1",          6237,   7.07107E-03,   7.07107E-03,   475.000E-03,NA,NA,"",   10.0106E-03,            0.,   476.257E-03,   10.5844E-06,   1.11075E+03
C:/ALETube/PressureUpdate/LargeStep/DeformErode/JobErode.odb,Step-1,Increment      8: Step Time =,    80.00,"TUBE-1",          6435,   5.87785E-03,   8.09017E-03,   487.500E-03,NA,NA,"",   10.0108E-03,  -867.362E-21,   488.753E-03,   10.8429E-06,   1.13767E+03
C:/ALETube/PressureUpdate/LargeStep/DeformErode/JobErode.odb,Step-1,Increment      8: Step Time =,    80.00,"TUBE-1",          6401,   7.07107E-03,   7.07107E-03,   487.500E-03,NA,NA,"",   10.0109E-03,            0.,   488.753E-03,   10.8641E-06,   1.14007E+03
C:/ALETube/PressureUpdate/LargeStep/DeformErode/JobErode.odb,Step-1,Increment      8: Step Time =,    80.00,"TUBE-1",          6565,   7.07107E-03,   7.07107E-03,      500.E-03,NA,NA,"",   10.0111E-03,            0.,   501.249E-03,   11.1437E-06,   1.16940E+03
C:/ALETube/PressureUpdate/LargeStep/DeformErode/JobErode.odb,Step-1,Increment      8: Step Time =,    80.00,"TUBE-1",          6599,   5.87785E-03,   8.09017E-03,      500.E-03,NA,NA,"",   10.0111E-03,   867.362E-21,   501.249E-03,   11.1220E-06,   1.16693E+03
C:/ALETube/PressureUpdate/LargeStep/DeformErode/JobErode.odb,Step-1,Increment      8: Step Time =,    80.00,"TUBE-1",          6763,   5.87785E-03,   8.09017E-03,   512.500E-03,NA,NA,"",   10.0114E-03,            0.,   513.744E-03,   11.4011E-06,   1.19619E+03
C:/ALETube/PressureUpdate/LargeStep/DeformErode/JobErode.odb,Step-1,Increment      8: Step Time =,    80.00,"TUBE-1",          6729,   7.07107E-03,   7.07107E-03,   512.500E-03,NA,NA,"",   10.0114E-03,            0.,   513.744E-03,   11.4234E-06,   1.19872E+03
C:/ALETube/PressureUpdate/LargeStep/DeformErode/JobErode.odb,Step-1,Increment      8: Step Time =,    80.00,"TUBE-1",          6927,   5.87785E-03,   8.09017E-03,   525.000E-03,NA,NA,"",   10.0117E-03,            0.,   526.240E-03,   11.6801E-06,   1.22545E+03
C:/ALETube/PressureUpdate/LargeStep/DeformErode/JobErode.odb,Step-1,Increment      8: Step Time =,    80.00,"TUBE-1",          6893,   7.07107E-03,   7.07107E-03,   525.000E-03,NA,NA,"",   10.0117E-03,            0.,   526.240E-03,   11.7030E-06,   1.22804E+03
C:/ALETube/PressureUpdate/LargeStep/DeformErode/JobErode.odb,Step-1,Increment      8: Step Time =,    80.00,"TUBE-1",          7091,   5.87785E-03,   8.09017E-03,   537.500E-03,NA,NA,"",   10.0120E-03,            0.,   538.736E-03,   11.9591E-06,   1.25470E+03
C:/ALETube/PressureUpdate/LargeStep/DeformErode/JobErode.odb,Step-1,Increment      8: Step Time =,    80.00,"TUBE-1",          7057,   7.07107E-03,   7.07107E-03,   537.500E-03,NA,NA,"",   10.0120E-03,            0.,   538.736E-03,   11.9825E-06,   1.25735E+03
C:/ALETube/PressureUpdate/LargeStep/DeformErode/JobErode.odb,Step-1,Increment      8: Step Time =,    80.00,"TUBE-1",          7255,   5.87785E-03,   8.09017E-03,   550.000E-03,NA,NA,"",   10.0122E-03,            0.,   551.231E-03,   12.2381E-06,   1.28394E+03
C:/ALETube/PressureUpdate/LargeStep/DeformErode/JobErode.odb,Step-1,Increment      8: Step Time =,    80.00,"TUBE-1",          7221,   7.07107E-03,   7.07107E-03,   550.000E-03,NA,NA,"",   10.0123E-03,            0.,   551.231E-03,   12.2621E-06,   1.28666E+03
C:/ALETube/PressureUpdate/LargeStep/DeformErode/JobErode.odb,Step-1,Increment      8: Step Time =,    80.00,"TUBE-1",          7385,   7.07107E-03,   7.07107E-03,     562.5E-03,NA,NA,"",   10.0125E-03,            0.,   563.726E-03,   12.5416E-06,   1.31596E+03
C:/ALETube/PressureUpdate/LargeStep/DeformErode/JobErode.odb,Step-1,Increment      8: Step Time =,    80.00,"TUBE-1",          7419,   5.87785E-03,   8.09017E-03,     562.5E-03,NA,NA,"",   10.0125E-03,   867.362E-21,   563.726E-03,   12.5171E-06,   1.31319E+03
C:/ALETube/PressureUpdate/LargeStep/DeformErode/JobErode.odb,Step-1,Increment      8: Step Time =,    80.00,"TUBE-1",          7583,   5.87785E-03,   8.09017E-03,   575.000E-03,NA,NA,"",   10.0128E-03,  -867.362E-21,   576.222E-03,   12.7961E-06,   1.34243E+03
C:/ALETube/PressureUpdate/LargeStep/DeformErode/JobErode.odb,Step-1,Increment      8: Step Time =,    80.00,"TUBE-1",          7549,   7.07107E-03,   7.07107E-03,   575.000E-03,NA,NA,"",   10.0128E-03,            0.,   576.222E-03,   12.8211E-06,   1.34526E+03
C:/ALETube/PressureUpdate/LargeStep/DeformErode/JobErode.odb,Step-1,Increment      8: Step Time =,    80.00,"TUBE-1",          7747,   5.87785E-03,   8.09017E-03,   587.500E-03,NA,NA,"",   10.0131E-03,            0.,   588.717E-03,   13.0750E-06,   1.37166E+03
C:/ALETube/PressureUpdate/LargeStep/DeformErode/JobErode.odb,Step-1,Increment      8: Step Time =,    80.00,"TUBE-1",          7713,   7.07107E-03,   7.07107E-03,   587.500E-03,NA,NA,"",   10.0131E-03,            0.,   588.717E-03,   13.1005E-06,   1.37456E+03
C:/ALETube/PressureUpdate/LargeStep/DeformErode/JobErode.odb,Step-1,Increment      8: Step Time =,    80.00,"TUBE-1",          7911,   5.87785E-03,   8.09017E-03,   600.000E-03,NA,NA,"",   10.0134E-03,            0.,   601.212E-03,   13.3539E-06,   1.40089E+03
C:/ALETube/PressureUpdate/LargeStep/DeformErode/JobErode.odb,Step-1,Increment      8: Step Time =,    80.00,"TUBE-1",          7877,   7.07107E-03,   7.07107E-03,   600.000E-03,NA,NA,"",   10.0134E-03,            0.,   601.212E-03,   13.3800E-06,   1.40385E+03
C:/ALETube/PressureUpdate/LargeStep/DeformErode/JobErode.odb,Step-1,Increment      8: Step Time =,    80.00,"TUBE-1",          8075,   5.87785E-03,   8.09017E-03,   612.500E-03,NA,NA,"",   10.0136E-03,            0.,   613.707E-03,   13.6327E-06,   1.43012E+03
C:/ALETube/PressureUpdate/LargeStep/DeformErode/JobErode.odb,Step-1,Increment      8: Step Time =,    80.00,"TUBE-1",          8041,   7.07107E-03,   7.07107E-03,   612.500E-03,NA,NA,"",   10.0137E-03,            0.,   613.707E-03,   13.6594E-06,   1.43314E+03
C:/ALETube/PressureUpdate/LargeStep/DeformErode/JobErode.odb,Step-1,Increment      8: Step Time =,    80.00,"TUBE-1",          8205,   7.07107E-03,   7.07107E-03,      625.E-03,NA,NA,"",   10.0139E-03,            0.,   626.202E-03,   13.9387E-06,   1.46243E+03
C:/ALETube/PressureUpdate/LargeStep/DeformErode/JobErode.odb,Step-1,Increment      8: Step Time =,    80.00,"TUBE-1",          8239,   5.87785E-03,   8.09017E-03,      625.E-03,NA,NA,"",   10.0139E-03,            0.,   626.202E-03,   13.9116E-06,   1.45935E+03
C:/ALETube/PressureUpdate/LargeStep/DeformErode/JobErode.odb,Step-1,Increment      8: Step Time =,    80.00,"TUBE-1",          8403,   5.87785E-03,   8.09017E-03,   637.500E-03,NA,NA,"",   10.0142E-03,   867.362E-21,   638.696E-03,   14.1904E-06,   1.48857E+03
C:/ALETube/PressureUpdate/LargeStep/DeformErode/JobErode.odb,Step-1,Increment      8: Step Time =,    80.00,"TUBE-1",          8369,   7.07107E-03,   7.07107E-03,   637.500E-03,NA,NA,"",   10.0142E-03,            0.,   638.696E-03,   14.2181E-06,   1.49171E+03
C:/ALETube/PressureUpdate/LargeStep/DeformErode/JobErode.odb,Step-1,Increment      8: Step Time =,    80.00,"TUBE-1",          8567,   5.87785E-03,   8.09017E-03,   650.000E-03,NA,NA,"",   10.0145E-03,  -867.362E-21,   651.191E-03,   14.4692E-06,   1.51778E+03
C:/ALETube/PressureUpdate/LargeStep/DeformErode/JobErode.odb,Step-1,Increment      8: Step Time =,    80.00,"TUBE-1",          8533,   7.07107E-03,   7.07107E-03,   650.000E-03,NA,NA,"",   10.0145E-03,            0.,   651.191E-03,   14.4974E-06,   1.52098E+03
C:/ALETube/PressureUpdate/LargeStep/DeformErode/JobErode.odb,Step-1,Increment      8: Step Time =,    80.00,"TUBE-1",          8731,   5.87785E-03,   8.09017E-03,   662.500E-03,NA,NA,"",   10.0147E-03,            0.,   663.685E-03,   14.7479E-06,   1.54699E+03
C:/ALETube/PressureUpdate/LargeStep/DeformErode/JobErode.odb,Step-1,Increment      8: Step Time =,    80.00,"TUBE-1",          8697,   7.07107E-03,   7.07107E-03,   662.500E-03,NA,NA,"",   10.0148E-03,            0.,   663.685E-03,   14.7767E-06,   1.55026E+03
C:/ALETube/PressureUpdate/LargeStep/DeformErode/JobErode.odb,Step-1,Increment      8: Step Time =,    80.00,"TUBE-1",          8895,   5.87785E-03,   8.09017E-03,   675.000E-03,NA,NA,"",   10.0150E-03,            0.,   676.180E-03,   15.0266E-06,   1.57620E+03
C:/ALETube/PressureUpdate/LargeStep/DeformErode/JobErode.odb,Step-1,Increment      8: Step Time =,    80.00,"TUBE-1",          8861,   7.07107E-03,   7.07107E-03,   675.000E-03,NA,NA,"",   10.0151E-03,            0.,   676.180E-03,   15.0560E-06,   1.57953E+03
C:/ALETube/PressureUpdate/LargeStep/DeformErode/JobErode.odb,Step-1,Increment      8: Step Time =,    80.00,"TUBE-1",          9025,   7.07107E-03,   7.07107E-03,     687.5E-03,NA,NA,"",   10.0153E-03,            0.,   688.674E-03,   15.3352E-06,   1.60879E+03
C:/ALETube/PressureUpdate/LargeStep/DeformErode/JobErode.odb,Step-1,Increment      8: Step Time =,    80.00,"TUBE-1",          9059,   5.87785E-03,   8.09017E-03,     687.5E-03,NA,NA,"",   10.0153E-03,            0.,   688.674E-03,   15.3053E-06,   1.60541E+03
C:/ALETube/PressureUpdate/LargeStep/DeformErode/JobErode.odb,Step-1,Increment      8: Step Time =,    80.00,"TUBE-1",          9223,   5.87785E-03,   8.09017E-03,   700.000E-03,NA,NA,"",   10.0156E-03,  -867.362E-21,   701.168E-03,   15.5840E-06,   1.63460E+03
C:/ALETube/PressureUpdate/LargeStep/DeformErode/JobErode.odb,Step-1,Increment      8: Step Time =,    80.00,"TUBE-1",          9189,   7.07107E-03,   7.07107E-03,   700.000E-03,NA,NA,"",   10.0156E-03,            0.,   701.168E-03,   15.6144E-06,   1.63805E+03
C:/ALETube/PressureUpdate/LargeStep/DeformErode/JobErode.odb,Step-1,Increment      8: Step Time =,    80.00,"TUBE-1",          9387,   5.87785E-03,   8.09017E-03,   712.500E-03,NA,NA,"",   10.0159E-03,            0.,   713.662E-03,   15.8627E-06,   1.66380E+03
C:/ALETube/PressureUpdate/LargeStep/DeformErode/JobErode.odb,Step-1,Increment      8: Step Time =,    80.00,"TUBE-1",          9353,   7.07107E-03,   7.07107E-03,   712.500E-03,NA,NA,"",   10.0159E-03,            0.,   713.662E-03,   15.8936E-06,   1.66731E+03
C:/ALETube/PressureUpdate/LargeStep/DeformErode/JobErode.odb,Step-1,Increment      8: Step Time =,    80.00,"TUBE-1",          9551,   5.87785E-03,   8.09017E-03,   725.000E-03,NA,NA,"",   10.0161E-03,            0.,   726.156E-03,   16.1413E-06,   1.69299E+03
C:/ALETube/PressureUpdate/LargeStep/DeformErode/JobErode.odb,Step-1,Increment      8: Step Time =,    80.00,"TUBE-1",          9517,   7.07107E-03,   7.07107E-03,   725.000E-03,NA,NA,"",   10.0162E-03,            0.,   726.156E-03,   16.1728E-06,   1.69656E+03
C:/ALETube/PressureUpdate/LargeStep/DeformErode/JobErode.odb,Step-1,Increment      8: Step Time =,    80.00,"TUBE-1",          9715,   5.87785E-03,   8.09017E-03,   737.500E-03,NA,NA,"",   10.0164E-03,   867.362E-21,   738.650E-03,   16.4199E-06,   1.72218E+03
C:/ALETube/PressureUpdate/LargeStep/DeformErode/JobErode.odb,Step-1,Increment      8: Step Time =,    80.00,"TUBE-1",          9681,   7.07107E-03,   7.07107E-03,   737.500E-03,NA,NA,"",   10.0165E-03,            0.,   738.650E-03,   16.4519E-06,   1.72581E+03
C:/ALETube/PressureUpdate/LargeStep/DeformErode/JobErode.odb,Step-1,Increment      8: Step Time =,    80.00,"TUBE-1",          9845,   7.07107E-03,   7.07107E-03,      750.E-03,NA,NA,"",   10.0167E-03,            0.,   751.144E-03,   16.7310E-06,   1.75506E+03
C:/ALETube/PressureUpdate/LargeStep/DeformErode/JobErode.odb,Step-1,Increment      8: Step Time =,    80.00,"TUBE-1",          9879,   5.87785E-03,   8.09017E-03,      750.E-03,NA,NA,"",   10.0167E-03,            0.,   751.144E-03,   16.6984E-06,   1.75137E+03
C:/ALETube/PressureUpdate/LargeStep/DeformErode/JobErode.odb,Step-1,Increment      8: Step Time =,    80.00,"TUBE-1",         10043,   5.87785E-03,   8.09017E-03,   762.500E-03,NA,NA,"",   10.0170E-03,            0.,   763.638E-03,   16.9770E-06,   1.78055E+03
C:/ALETube/PressureUpdate/LargeStep/DeformErode/JobErode.odb,Step-1,Increment      8: Step Time =,    80.00,"TUBE-1",         10009,   7.07107E-03,   7.07107E-03,   762.500E-03,NA,NA,"",   10.0170E-03,            0.,   763.638E-03,   17.0101E-06,   1.78430E+03
C:/ALETube/PressureUpdate/LargeStep/DeformErode/JobErode.odb,Step-1,Increment      8: Step Time =,    80.00,"TUBE-1",         10207,   5.87785E-03,   8.09017E-03,   775.000E-03,NA,NA,"",   10.0173E-03,            0.,   776.131E-03,   17.2555E-06,   1.80972E+03
C:/ALETube/PressureUpdate/LargeStep/DeformErode/JobErode.odb,Step-1,Increment      8: Step Time =,    80.00,"TUBE-1",         10173,   7.07107E-03,   7.07107E-03,   775.000E-03,NA,NA,"",   10.0173E-03,            0.,   776.131E-03,   17.2891E-06,   1.81353E+03
C:/ALETube/PressureUpdate/LargeStep/DeformErode/JobErode.odb,Step-1,Increment      8: Step Time =,    80.00,"TUBE-1",         10371,   5.87785E-03,   8.09017E-03,   787.500E-03,NA,NA,"",   10.0175E-03,  -867.362E-21,   788.625E-03,   17.5340E-06,   1.83889E+03
C:/ALETube/PressureUpdate/LargeStep/DeformErode/JobErode.odb,Step-1,Increment      8: Step Time =,    80.00,"TUBE-1",         10337,   7.07107E-03,   7.07107E-03,   787.500E-03,NA,NA,"",   10.0176E-03,            0.,   788.625E-03,   17.5681E-06,   1.84277E+03
C:/ALETube/PressureUpdate/LargeStep/DeformErode/JobErode.odb,Step-1,Increment      8: Step Time =,    80.00,"TUBE-1",         10535,   5.87785E-03,   8.09017E-03,   800.000E-03,NA,NA,"",   10.0178E-03,            0.,   801.118E-03,   17.8124E-06,   1.86806E+03
C:/ALETube/PressureUpdate/LargeStep/DeformErode/JobErode.odb,Step-1,Increment      8: Step Time =,    80.00,"TUBE-1",         10501,   7.07107E-03,   7.07107E-03,   800.000E-03,NA,NA,"",   10.0178E-03,            0.,   801.118E-03,   17.8471E-06,   1.87200E+03
C:/ALETube/PressureUpdate/LargeStep/DeformErode/JobErode.odb,Step-1,Increment      8: Step Time =,    80.00,"TUBE-1",         10665,   7.07107E-03,   7.07107E-03,     812.5E-03,NA,NA,"",   10.0181E-03,            0.,   813.611E-03,   18.1261E-06,   1.90122E+03
C:/ALETube/PressureUpdate/LargeStep/DeformErode/JobErode.odb,Step-1,Increment      8: Step Time =,    80.00,"TUBE-1",         10699,   5.87785E-03,   8.09017E-03,     812.5E-03,NA,NA,"",   10.0181E-03,  -867.362E-21,   813.611E-03,   18.0908E-06,   1.89723E+03
C:/ALETube/PressureUpdate/LargeStep/DeformErode/JobErode.odb,Step-1,Increment      8: Step Time =,    80.00,"TUBE-1",         10863,   5.87785E-03,   8.09017E-03,   825.000E-03,NA,NA,"",   10.0184E-03,   867.362E-21,   826.104E-03,   18.3692E-06,   1.92639E+03
C:/ALETube/PressureUpdate/LargeStep/DeformErode/JobErode.odb,Step-1,Increment      8: Step Time =,    80.00,"TUBE-1",         10829,   7.07107E-03,   7.07107E-03,   825.000E-03,NA,NA,"",   10.0184E-03,            0.,   826.104E-03,   18.4050E-06,   1.93045E+03
C:/ALETube/PressureUpdate/LargeStep/DeformErode/JobErode.odb,Step-1,Increment      8: Step Time =,    80.00,"TUBE-1",         11027,   5.87785E-03,   8.09017E-03,   837.500E-03,NA,NA,"",   10.0186E-03,            0.,   838.597E-03,   18.6476E-06,   1.95555E+03
C:/ALETube/PressureUpdate/LargeStep/DeformErode/JobErode.odb,Step-1,Increment      8: Step Time =,    80.00,"TUBE-1",         10993,   7.07107E-03,   7.07107E-03,   837.500E-03,NA,NA,"",   10.0187E-03,            0.,   838.597E-03,   18.6839E-06,   1.95966E+03
C:/ALETube/PressureUpdate/LargeStep/DeformErode/JobErode.odb,Step-1,Increment      8: Step Time =,    80.00,"TUBE-1",         11191,   5.87785E-03,   8.09017E-03,   850.000E-03,NA,NA,"",   10.0189E-03,   867.362E-21,   851.090E-03,   18.9260E-06,   1.98470E+03
C:/ALETube/PressureUpdate/LargeStep/DeformErode/JobErode.odb,Step-1,Increment      8: Step Time =,    80.00,"TUBE-1",         11157,   7.07107E-03,   7.07107E-03,   850.000E-03,NA,NA,"",   10.0190E-03,            0.,   851.090E-03,   18.9628E-06,   1.98888E+03
C:/ALETube/PressureUpdate/LargeStep/DeformErode/JobErode.odb,Step-1,Increment      8: Step Time =,    80.00,"TUBE-1",         11355,   5.87785E-03,   8.09017E-03,   862.500E-03,NA,NA,"",   10.0192E-03,            0.,   863.583E-03,   19.2043E-06,   2.01385E+03
C:/ALETube/PressureUpdate/LargeStep/DeformErode/JobErode.odb,Step-1,Increment      8: Step Time =,    80.00,"TUBE-1",         11321,   7.07107E-03,   7.07107E-03,   862.500E-03,NA,NA,"",   10.0192E-03,            0.,   863.583E-03,   19.2417E-06,   2.01809E+03
C:/ALETube/PressureUpdate/LargeStep/DeformErode/JobErode.odb,Step-1,Increment      8: Step Time =,    80.00,"TUBE-1",         11485,   7.07107E-03,   7.07107E-03,      875.E-03,NA,NA,"",   10.0195E-03,            0.,   876.076E-03,   19.5205E-06,   2.04729E+03
C:/ALETube/PressureUpdate/LargeStep/DeformErode/JobErode.odb,Step-1,Increment      8: Step Time =,    80.00,"TUBE-1",         11519,   5.87785E-03,   8.09017E-03,      875.E-03,NA,NA,"",   10.0195E-03,  -867.362E-21,   876.076E-03,   19.4826E-06,   2.04299E+03
C:/ALETube/PressureUpdate/LargeStep/DeformErode/JobErode.odb,Step-1,Increment      8: Step Time =,    80.00,"TUBE-1",         11683,   5.87785E-03,   8.09017E-03,   887.500E-03,NA,NA,"",   10.0198E-03,            0.,   888.568E-03,   19.7608E-06,   2.07213E+03
C:/ALETube/PressureUpdate/LargeStep/DeformErode/JobErode.odb,Step-1,Increment      8: Step Time =,    80.00,"TUBE-1",         11649,   7.07107E-03,   7.07107E-03,   887.500E-03,NA,NA,"",   10.0198E-03,            0.,   888.568E-03,   19.7993E-06,   2.07649E+03
C:/ALETube/PressureUpdate/LargeStep/DeformErode/JobErode.odb,Step-1,Increment      8: Step Time =,    80.00,"TUBE-1",         11847,   5.87785E-03,   8.09017E-03,   900.000E-03,NA,NA,"",   10.0200E-03,            0.,   901.061E-03,   20.0391E-06,   2.10127E+03
C:/ALETube/PressureUpdate/LargeStep/DeformErode/JobErode.odb,Step-1,Increment      8: Step Time =,    80.00,"TUBE-1",         11813,   7.07107E-03,   7.07107E-03,   900.000E-03,NA,NA,"",   10.0201E-03,            0.,   901.061E-03,   20.0781E-06,   2.10569E+03
C:/ALETube/PressureUpdate/LargeStep/DeformErode/JobErode.odb,Step-1,Increment      8: Step Time =,    80.00,"TUBE-1",         12011,   5.87785E-03,   8.09017E-03,   912.500E-03,NA,NA,"",   10.0203E-03,            0.,   913.553E-03,   20.3173E-06,   2.13040E+03
C:/ALETube/PressureUpdate/LargeStep/DeformErode/JobErode.odb,Step-1,Increment      8: Step Time =,    80.00,"TUBE-1",         11977,   7.07107E-03,   7.07107E-03,   912.500E-03,NA,NA,"",   10.0204E-03,            0.,   913.553E-03,   20.3568E-06,   2.13488E+03
C:/ALETube/PressureUpdate/LargeStep/DeformErode/JobErode.odb,Step-1,Increment      8: Step Time =,    80.00,"TUBE-1",         12175,   5.87785E-03,   8.09017E-03,   925.000E-03,NA,NA,"",   10.0206E-03,   867.362E-21,   926.046E-03,   20.5955E-06,   2.15953E+03
C:/ALETube/PressureUpdate/LargeStep/DeformErode/JobErode.odb,Step-1,Increment      8: Step Time =,    80.00,"TUBE-1",         12141,   7.07107E-03,   7.07107E-03,   925.000E-03,NA,NA,"",   10.0206E-03,            0.,   926.046E-03,   20.6355E-06,   2.16407E+03
C:/ALETube/PressureUpdate/LargeStep/DeformErode/JobErode.odb,Step-1,Increment      8: Step Time =,    80.00,"TUBE-1",         12305,   7.07107E-03,   7.07107E-03,     937.5E-03,NA,NA,"",   10.0209E-03,            0.,   938.538E-03,   20.9142E-06,   2.19326E+03
C:/ALETube/PressureUpdate/LargeStep/DeformErode/JobErode.odb,Step-1,Increment      8: Step Time =,    80.00,"TUBE-1",         12339,   5.87785E-03,   8.09017E-03,     937.5E-03,NA,NA,"",   10.0209E-03,            0.,   938.538E-03,   20.8736E-06,   2.18866E+03
C:/ALETube/PressureUpdate/LargeStep/DeformErode/JobErode.odb,Step-1,Increment      8: Step Time =,    80.00,"TUBE-1",         12503,   5.87785E-03,   8.09017E-03,   950.000E-03,NA,NA,"",   10.0212E-03,            0.,   951.030E-03,   21.1517E-06,   2.21778E+03
C:/ALETube/PressureUpdate/LargeStep/DeformErode/JobErode.odb,Step-1,Increment      8: Step Time =,    80.00,"TUBE-1",         12469,   7.07107E-03,   7.07107E-03,   950.000E-03,NA,NA,"",   10.0212E-03,            0.,   951.030E-03,   21.1929E-06,   2.22244E+03
C:/ALETube/PressureUpdate/LargeStep/DeformErode/JobErode.odb,Step-1,Increment      8: Step Time =,    80.00,"TUBE-1",         12667,   5.87785E-03,   8.09017E-03,   962.500E-03,NA,NA,"",   10.0214E-03,            0.,   963.522E-03,   21.4298E-06,   2.24690E+03
C:/ALETube/PressureUpdate/LargeStep/DeformErode/JobErode.odb,Step-1,Increment      8: Step Time =,    80.00,"TUBE-1",         12633,   7.07107E-03,   7.07107E-03,   962.500E-03,NA,NA,"",   10.0215E-03,            0.,   963.522E-03,   21.4715E-06,   2.25162E+03
C:/ALETube/PressureUpdate/LargeStep/DeformErode/JobErode.odb,Step-1,Increment      8: Step Time =,    80.00,"TUBE-1",         12831,   5.87785E-03,   8.09017E-03,   975.000E-03,NA,NA,"",   10.0217E-03,            0.,   976.014E-03,   21.7079E-06,   2.27601E+03
C:/ALETube/PressureUpdate/LargeStep/DeformErode/JobErode.odb,Step-1,Increment      8: Step Time =,    80.00,"TUBE-1",         12797,   7.07107E-03,   7.07107E-03,   975.000E-03,NA,NA,"",   10.0217E-03,            0.,   976.014E-03,   21.7501E-06,   2.28079E+03
C:/ALETube/PressureUpdate/LargeStep/DeformErode/JobErode.odb,Step-1,Increment      8: Step Time =,    80.00,"TUBE-1",         12995,   5.87785E-03,   8.09017E-03,   987.500E-03,NA,NA,"",   10.0220E-03,            0.,   988.506E-03,   21.9860E-06,   2.30512E+03
C:/ALETube/PressureUpdate/LargeStep/DeformErode/JobErode.odb,Step-1,Increment      8: Step Time =,    80.00,"TUBE-1",         12961,   7.07107E-03,   7.07107E-03,   987.500E-03,NA,NA,"",   10.0220E-03,            0.,   988.506E-03,   22.0287E-06,   2.30996E+03
C:/ALETube/PressureUpdate/LargeStep/DeformErode/JobErode.odb,Step-1,Increment      8: Step Time =,    80.00,"TUBE-1",         13125,   7.07107E-03,   7.07107E-03,            1.,NA,NA,"",   10.0223E-03,            0.,       1.00100,   22.3073E-06,   2.33913E+03
C:/ALETube/PressureUpdate/LargeStep/DeformErode/JobErode.odb,Step-1,Increment      8: Step Time =,    80.00,"TUBE-1",         13159,   5.87785E-03,   8.09017E-03,            1.,NA,NA,"",   10.0223E-03,  -867.362E-21,       1.00100,   22.2640E-06,   2.33422E+03
C:/ALETube/PressureUpdate/LargeStep/DeformErode/JobErode.odb,Step-1,Increment      8: Step Time =,    80.00,"TUBE-1",         13323,   5.87785E-03,   8.09017E-03,       1.01250,NA,NA,"",   10.0225E-03,            0.,       1.01349,   22.5420E-06,   2.36333E+03
C:/ALETube/PressureUpdate/LargeStep/DeformErode/JobErode.odb,Step-1,Increment      8: Step Time =,    80.00,"TUBE-1",         13289,   7.07107E-03,   7.07107E-03,       1.01250,NA,NA,"",   10.0226E-03,            0.,       1.01349,   22.5858E-06,   2.36829E+03
C:/ALETube/PressureUpdate/LargeStep/DeformErode/JobErode.odb,Step-1,Increment      8: Step Time =,    80.00,"TUBE-1",         13487,   5.87785E-03,   8.09017E-03,       1.02500,NA,NA,"",   10.0228E-03,            0.,       1.02598,   22.8199E-06,   2.39242E+03
C:/ALETube/PressureUpdate/LargeStep/DeformErode/JobErode.odb,Step-1,Increment      8: Step Time =,    80.00,"TUBE-1",         13453,   7.07107E-03,   7.07107E-03,       1.02500,NA,NA,"",   10.0229E-03,            0.,       1.02598,   22.8643E-06,   2.39745E+03
C:/ALETube/PressureUpdate/LargeStep/DeformErode/JobErode.odb,Step-1,Increment      8: Step Time =,    80.00,"TUBE-1",         13617,   7.07107E-03,   7.07107E-03,       1.03750,NA,NA,"",   10.0231E-03,            0.,       1.03847,   23.1428E-06,   2.42661E+03
C:/ALETube/PressureUpdate/LargeStep/DeformErode/JobErode.odb,Step-1,Increment      8: Step Time =,    80.00,"TUBE-1",         13651,   5.87785E-03,   8.09017E-03,       1.03750,NA,NA,"",   10.0231E-03,            0.,       1.03847,   23.0979E-06,   2.42152E+03
C:/ALETube/PressureUpdate/LargeStep/DeformErode/JobErode.odb,Step-1,Increment      8: Step Time =,    80.00,"TUBE-1",         13815,   5.87785E-03,   8.09017E-03,       1.05000,NA,NA,"",   10.0234E-03,  -867.362E-21,       1.05096,   23.3758E-06,   2.45061E+03
C:/ALETube/PressureUpdate/LargeStep/DeformErode/JobErode.odb,Step-1,Increment      8: Step Time =,    80.00,"TUBE-1",         13781,   7.07107E-03,   7.07107E-03,       1.05000,NA,NA,"",   10.0234E-03,            0.,       1.05096,   23.4212E-06,   2.45576E+03
C:/ALETube/PressureUpdate/LargeStep/DeformErode/JobErode.odb,Step-1,Increment      8: Step Time =,    80.00,"TUBE-1",         13979,   5.87785E-03,   8.09017E-03,        1.0625,NA,NA,"",   10.0237E-03,            0.,       1.06345,   23.6537E-06,   2.47969E+03
C:/ALETube/PressureUpdate/LargeStep/DeformErode/JobErode.odb,Step-1,Increment      8: Step Time =,    80.00,"TUBE-1",         13945,   7.07107E-03,   7.07107E-03,        1.0625,NA,NA,"",   10.0237E-03,            0.,       1.06345,   23.6996E-06,   2.48490E+03
C:/ALETube/PressureUpdate/LargeStep/DeformErode/JobErode.odb,Step-1,Increment      8: Step Time =,    80.00,"TUBE-1",         14109,   7.07107E-03,   7.07107E-03,       1.07500,NA,NA,"",   10.0240E-03,            0.,       1.07595,   23.9780E-06,   2.51405E+03
C:/ALETube/PressureUpdate/LargeStep/DeformErode/JobErode.odb,Step-1,Increment      8: Step Time =,    80.00,"TUBE-1",         14143,   5.87785E-03,   8.09017E-03,       1.07500,NA,NA,"",   10.0239E-03,            0.,       1.07595,   23.9315E-06,   2.50878E+03
C:/ALETube/PressureUpdate/LargeStep/DeformErode/JobErode.odb,Step-1,Increment      8: Step Time =,    80.00,"TUBE-1",         14307,   5.87785E-03,   8.09017E-03,       1.08750,NA,NA,"",   10.0242E-03,            0.,       1.08844,   24.2094E-06,   2.53785E+03
C:/ALETube/PressureUpdate/LargeStep/DeformErode/JobErode.odb,Step-1,Increment      8: Step Time =,    80.00,"TUBE-1",         14273,   7.07107E-03,   7.07107E-03,       1.08750,NA,NA,"",   10.0243E-03,            0.,       1.08844,   24.2564E-06,   2.54318E+03
C:/ALETube/PressureUpdate/LargeStep/DeformErode/JobErode.odb,Step-1,Increment      8: Step Time =,    80.00,"TUBE-1",         14471,   5.87785E-03,   8.09017E-03,       1.10000,NA,NA,"",   10.0245E-03,   867.362E-21,       1.10093,   24.4872E-06,   2.56693E+03
C:/ALETube/PressureUpdate/LargeStep/DeformErode/JobErode.odb,Step-1,Increment      8: Step Time =,    80.00,"TUBE-1",         14437,   7.07107E-03,   7.07107E-03,       1.10000,NA,NA,"",   10.0245E-03,            0.,       1.10093,   24.5347E-06,   2.57232E+03
C:/ALETube/PressureUpdate/LargeStep/DeformErode/JobErode.odb,Step-1,Increment      8: Step Time =,    80.00,"TUBE-1",         14635,   5.87785E-03,   8.09017E-03,       1.11250,NA,NA,"",   10.0248E-03,            0.,       1.11342,   24.7649E-06,   2.59600E+03
C:/ALETube/PressureUpdate/LargeStep/DeformErode/JobErode.odb,Step-1,Increment      8: Step Time =,    80.00,"TUBE-1",         14601,   7.07107E-03,   7.07107E-03,       1.11250,NA,NA,"",   10.0248E-03,            0.,       1.11342,   24.8130E-06,   2.60145E+03
C:/ALETube/PressureUpdate/LargeStep/DeformErode/JobErode.odb,Step-1,Increment      8: Step Time =,    80.00,"TUBE-1",         14799,   5.87785E-03,   8.09017E-03,         1.125,NA,NA,"",   10.0250E-03,  -867.362E-21,       1.12591,   25.0427E-06,   2.62506E+03
C:/ALETube/PressureUpdate/LargeStep/DeformErode/JobErode.odb,Step-1,Increment      8: Step Time =,    80.00,"TUBE-1",         14765,   7.07107E-03,   7.07107E-03,         1.125,NA,NA,"",   10.0251E-03,            0.,       1.12591,   25.0913E-06,   2.63058E+03
C:/ALETube/PressureUpdate/LargeStep/DeformErode/JobErode.odb,Step-1,Increment      8: Step Time =,    80.00,"TUBE-1",         14929,   7.07107E-03,   7.07107E-03,       1.13750,NA,NA,"",   10.0254E-03,            0.,       1.13840,   25.3696E-06,   2.65970E+03
C:/ALETube/PressureUpdate/LargeStep/DeformErode/JobErode.odb,Step-1,Increment      8: Step Time =,    80.00,"TUBE-1",         14963,   5.87785E-03,   8.09017E-03,       1.13750,NA,NA,"",   10.0253E-03,   867.362E-21,       1.13840,   25.3204E-06,   2.65413E+03
C:/ALETube/PressureUpdate/LargeStep/DeformErode/JobErode.odb,Step-1,Increment      8: Step Time =,    80.00,"TUBE-1",         15127,   5.87785E-03,   8.09017E-03,       1.15000,NA,NA,"",   10.0256E-03,            0.,       1.15089,   25.5981E-06,   2.68319E+03
C:/ALETube/PressureUpdate/LargeStep/DeformErode/JobErode.odb,Step-1,Increment      8: Step Time =,    80.00,"TUBE-1",         15093,   7.07107E-03,   7.07107E-03,       1.15000,NA,NA,"",   10.0256E-03,            0.,       1.15089,   25.6478E-06,   2.68882E+03
C:/ALETube/PressureUpdate/LargeStep/DeformErode/JobErode.odb,Step-1,Increment      8: Step Time =,    80.00,"TUBE-1",         15291,   5.87785E-03,   8.09017E-03,       1.16250,NA,NA,"",   10.0259E-03,   867.362E-21,       1.16338,   25.8758E-06,   2.71224E+03
C:/ALETube/PressureUpdate/LargeStep/DeformErode/JobErode.odb,Step-1,Increment      8: Step Time =,    80.00,"TUBE-1",         15257,   7.07107E-03,   7.07107E-03,       1.16250,NA,NA,"",   10.0259E-03,            0.,       1.16338,   25.9260E-06,   2.71793E+03
C:/ALETube/PressureUpdate/LargeStep/DeformErode/JobErode.odb,Step-1,Increment      8: Step Time =,    80.00,"TUBE-1",         15455,   5.87785E-03,   8.09017E-03,       1.17500,NA,NA,"",   10.0262E-03,            0.,       1.17587,   26.1534E-06,   2.74129E+03
C:/ALETube/PressureUpdate/LargeStep/DeformErode/JobErode.odb,Step-1,Increment      8: Step Time =,    80.00,"TUBE-1",         15421,   7.07107E-03,   7.07107E-03,       1.17500,NA,NA,"",   10.0262E-03,            0.,       1.17587,   26.2042E-06,   2.74705E+03
C:/ALETube/PressureUpdate/LargeStep/DeformErode/JobErode.odb,Step-1,Increment      8: Step Time =,    80.00,"TUBE-1",         15619,   5.87785E-03,   8.09017E-03,        1.1875,NA,NA,"",   10.0264E-03,            0.,       1.18836,   26.4310E-06,   2.77034E+03
C:/ALETube/PressureUpdate/LargeStep/DeformErode/JobErode.odb,Step-1,Increment      8: Step Time =,    80.00,"TUBE-1",         15585,   7.07107E-03,   7.07107E-03,        1.1875,NA,NA,"",   10.0265E-03,            0.,       1.18836,   26.4823E-06,   2.77615E+03
C:/ALETube/PressureUpdate/LargeStep/DeformErode/JobErode.odb,Step-1,Increment      8: Step Time =,    80.00,"TUBE-1",         15749,   7.07107E-03,   7.07107E-03,       1.20000,NA,NA,"",   10.0268E-03,            0.,       1.20085,   26.7604E-06,   2.80526E+03
C:/ALETube/PressureUpdate/LargeStep/DeformErode/JobErode.odb,Step-1,Increment      8: Step Time =,    80.00,"TUBE-1",         15783,   5.87785E-03,   8.09017E-03,       1.20000,NA,NA,"",   10.0267E-03,            0.,       1.20085,   26.7086E-06,   2.79938E+03
C:/ALETube/PressureUpdate/LargeStep/DeformErode/JobErode.odb,Step-1,Increment      8: Step Time =,    80.00,"TUBE-1",         15947,   5.87785E-03,   8.09017E-03,       1.21250,NA,NA,"",   10.0270E-03,            0.,       1.21334,   26.9862E-06,   2.82842E+03
C:/ALETube/PressureUpdate/LargeStep/DeformErode/JobErode.odb,Step-1,Increment      8: Step Time =,    80.00,"TUBE-1",         15913,   7.07107E-03,   7.07107E-03,       1.21250,NA,NA,"",   10.0270E-03,            0.,       1.21334,   27.0385E-06,   2.83435E+03
C:/ALETube/PressureUpdate/LargeStep/DeformErode/JobErode.odb,Step-1,Increment      8: Step Time =,    80.00,"TUBE-1",         16111,   5.87785E-03,   8.09017E-03,       1.22500,NA,NA,"",   10.0273E-03,            0.,       1.22583,   27.2637E-06,   2.85746E+03
C:/ALETube/PressureUpdate/LargeStep/DeformErode/JobErode.odb,Step-1,Increment      8: Step Time =,    80.00,"TUBE-1",         16077,   7.07107E-03,   7.07107E-03,       1.22500,NA,NA,"",   10.0273E-03,            0.,       1.22583,   27.3166E-06,   2.86345E+03
C:/ALETube/PressureUpdate/LargeStep/DeformErode/JobErode.odb,Step-1,Increment      8: Step Time =,    80.00,"TUBE-1",         16275,   5.87785E-03,   8.09017E-03,       1.23750,NA,NA,"",   10.0275E-03,  -867.362E-21,       1.23832,   27.5412E-06,   2.88649E+03
C:/ALETube/PressureUpdate/LargeStep/DeformErode/JobErode.odb,Step-1,Increment      8: Step Time =,    80.00,"TUBE-1",         16241,   7.07107E-03,   7.07107E-03,       1.23750,NA,NA,"",   10.0276E-03,            0.,       1.23832,   27.5946E-06,   2.89254E+03
C:/ALETube/PressureUpdate/LargeStep/DeformErode/JobErode.odb,Step-1,Increment      8: Step Time =,    80.00,"TUBE-1",         16439,   5.87785E-03,   8.09017E-03,          1.25,NA,NA,"",   10.0278E-03,  -867.362E-21,       1.25081,   27.8187E-06,   2.91551E+03
C:/ALETube/PressureUpdate/LargeStep/DeformErode/JobErode.odb,Step-1,Increment      8: Step Time =,    80.00,"TUBE-1",         16405,   7.07107E-03,   7.07107E-03,          1.25,NA,NA,"",   10.0279E-03,            0.,       1.25081,   27.8726E-06,   2.92163E+03
C:/ALETube/PressureUpdate/LargeStep/DeformErode/JobErode.odb,Step-1,Increment      8: Step Time =,    80.00,"TUBE-1",         16569,   7.07107E-03,   7.07107E-03,       1.26250,NA,NA,"",   10.0282E-03,            0.,       1.26330,   28.1506E-06,   2.95071E+03
C:/ALETube/PressureUpdate/LargeStep/DeformErode/JobErode.odb,Step-1,Increment      8: Step Time =,    80.00,"TUBE-1",         16603,   5.87785E-03,   8.09017E-03,       1.26250,NA,NA,"",   10.0281E-03,  -867.362E-21,       1.26330,   28.0961E-06,   2.94454E+03
C:/ALETube/PressureUpdate/LargeStep/DeformErode/JobErode.odb,Step-1,Increment      8: Step Time =,    80.00,"TUBE-1",         16767,   5.87785E-03,   8.09017E-03,       1.27500,NA,NA,"",   10.0284E-03,            0.,       1.27579,   28.3735E-06,   2.97356E+03
C:/ALETube/PressureUpdate/LargeStep/DeformErode/JobErode.odb,Step-1,Increment      8: Step Time =,    80.00,"TUBE-1",         16733,   7.07107E-03,   7.07107E-03,       1.27500,NA,NA,"",   10.0284E-03,            0.,       1.27579,   28.4285E-06,   2.97979E+03
C:/ALETube/PressureUpdate/LargeStep/DeformErode/JobErode.odb,Step-1,Increment      8: Step Time =,    80.00,"TUBE-1",         16931,   5.87785E-03,   8.09017E-03,       1.28750,NA,NA,"",   10.0287E-03,            0.,       1.28828,   28.6509E-06,   3.00257E+03
C:/ALETube/PressureUpdate/LargeStep/DeformErode/JobErode.odb,Step-1,Increment      8: Step Time =,    80.00,"TUBE-1",         16897,   7.07107E-03,   7.07107E-03,       1.28750,NA,NA,"",   10.0287E-03,            0.,       1.28828,   28.7065E-06,   3.00887E+03
C:/ALETube/PressureUpdate/LargeStep/DeformErode/JobErode.odb,Step-1,Increment      8: Step Time =,    80.00,"TUBE-1",         17095,   5.87785E-03,   8.09017E-03,       1.30000,NA,NA,"",   10.0289E-03,            0.,       1.30077,   28.9283E-06,   3.03158E+03
C:/ALETube/PressureUpdate/LargeStep/DeformErode/JobErode.odb,Step-1,Increment      8: Step Time =,    80.00,"TUBE-1",         17061,   7.07107E-03,   7.07107E-03,       1.30000,NA,NA,"",   10.0290E-03,            0.,       1.30077,   28.9844E-06,   3.03794E+03
C:/ALETube/PressureUpdate/LargeStep/DeformErode/JobErode.odb,Step-1,Increment      8: Step Time =,    80.00,"TUBE-1",         17259,   5.87785E-03,   8.09017E-03,        1.3125,NA,NA,"",   10.0292E-03,            0.,       1.31326,   29.2056E-06,   3.06059E+03
C:/ALETube/PressureUpdate/LargeStep/DeformErode/JobErode.odb,Step-1,Increment      8: Step Time =,    80.00,"TUBE-1",         17225,   7.07107E-03,   7.07107E-03,        1.3125,NA,NA,"",   10.0293E-03,            0.,       1.31326,   29.2622E-06,   3.06701E+03
C:/ALETube/PressureUpdate/LargeStep/DeformErode/JobErode.odb,Step-1,Increment      8: Step Time =,    80.00,"TUBE-1",         17389,   7.07107E-03,   7.07107E-03,       1.32500,NA,NA,"",   10.0295E-03,            0.,       1.32575,   29.5401E-06,   3.09607E+03
C:/ALETube/PressureUpdate/LargeStep/DeformErode/JobErode.odb,Step-1,Increment      8: Step Time =,    80.00,"TUBE-1",         17423,   5.87785E-03,   8.09017E-03,       1.32500,NA,NA,"",   10.0295E-03,            0.,       1.32575,   29.4830E-06,   3.08960E+03
C:/ALETube/PressureUpdate/LargeStep/DeformErode/JobErode.odb,Step-1,Increment      8: Step Time =,    80.00,"TUBE-1",         17587,   5.87785E-03,   8.09017E-03,       1.33750,NA,NA,"",   10.0298E-03,            0.,       1.33823,   29.7602E-06,   3.11860E+03
C:/ALETube/PressureUpdate/LargeStep/DeformErode/JobErode.odb,Step-1,Increment      8: Step Time =,    80.00,"TUBE-1",         17553,   7.07107E-03,   7.07107E-03,       1.33750,NA,NA,"",   10.0298E-03,            0.,       1.33823,   29.8179E-06,   3.12513E+03
C:/ALETube/PressureUpdate/LargeStep/DeformErode/JobErode.odb,Step-1,Increment      8: Step Time =,    80.00,"TUBE-1",         17751,   5.87785E-03,   8.09017E-03,       1.35000,NA,NA,"",   10.0300E-03,   1.73472E-18,       1.35072,   30.0375E-06,   3.14759E+03
C:/ALETube/PressureUpdate/LargeStep/DeformErode/JobErode.odb,Step-1,Increment      8: Step Time =,    80.00,"TUBE-1",         17717,   7.07107E-03,   7.07107E-03,       1.35000,NA,NA,"",   10.0301E-03,            0.,       1.35072,   30.0957E-06,   3.15419E+03
C:/ALETube/PressureUpdate/LargeStep/DeformErode/JobErode.odb,Step-1,Increment      8: Step Time =,    80.00,"TUBE-1",         17915,   5.87785E-03,   8.09017E-03,       1.36250,NA,NA,"",   10.0303E-03,            0.,       1.36321,   30.3147E-06,   3.17659E+03
C:/ALETube/PressureUpdate/LargeStep/DeformErode/JobErode.odb,Step-1,Increment      8: Step Time =,    80.00,"TUBE-1",         17881,   7.07107E-03,   7.07107E-03,       1.36250,NA,NA,"",   10.0304E-03,            0.,       1.36321,   30.3735E-06,   3.18324E+03
C:/ALETube/PressureUpdate/LargeStep/DeformErode/JobErode.odb,Step-1,Increment      8: Step Time =,    80.00,"TUBE-1",         18079,   5.87785E-03,   8.09017E-03,         1.375,NA,NA,"",   10.0306E-03,   867.362E-21,       1.37570,   30.5919E-06,   3.20557E+03
C:/ALETube/PressureUpdate/LargeStep/DeformErode/JobErode.odb,Step-1,Increment      8: Step Time =,    80.00,"TUBE-1",         18045,   7.07107E-03,   7.07107E-03,         1.375,NA,NA,"",   10.0307E-03,            0.,       1.37570,   30.6512E-06,   3.21229E+03
C:/ALETube/PressureUpdate/LargeStep/DeformErode/JobErode.odb,Step-1,Increment      8: Step Time =,    80.00,"TUBE-1",         18209,   7.07107E-03,   7.07107E-03,       1.38750,NA,NA,"",   10.0309E-03,            0.,       1.38819,   30.9289E-06,   3.24134E+03
C:/ALETube/PressureUpdate/LargeStep/DeformErode/JobErode.odb,Step-1,Increment      8: Step Time =,    80.00,"TUBE-1",         18243,   5.87785E-03,   8.09017E-03,       1.38750,NA,NA,"",   10.0309E-03,            0.,       1.38819,   30.8691E-06,   3.23456E+03
C:/ALETube/PressureUpdate/LargeStep/DeformErode/JobErode.odb,Step-1,Increment      8: Step Time =,    80.00,"TUBE-1",         18407,   5.87785E-03,   8.09017E-03,       1.40000,NA,NA,"",   10.0311E-03,  -867.362E-21,       1.40068,   31.1463E-06,   3.26354E+03
C:/ALETube/PressureUpdate/LargeStep/DeformErode/JobErode.odb,Step-1,Increment      8: Step Time =,    80.00,"TUBE-1",         18373,   7.07107E-03,   7.07107E-03,       1.40000,NA,NA,"",   10.0312E-03,            0.,       1.40068,   31.2066E-06,   3.27038E+03
C:/ALETube/PressureUpdate/LargeStep/DeformErode/JobErode.odb,Step-1,Increment      8: Step Time =,    80.00,"TUBE-1",         18571,   5.87785E-03,   8.09017E-03,       1.41250,NA,NA,"",   10.0314E-03,            0.,       1.41317,   31.4234E-06,   3.29252E+03
C:/ALETube/PressureUpdate/LargeStep/DeformErode/JobErode.odb,Step-1,Increment      8: Step Time =,    80.00,"TUBE-1",         18537,   7.07107E-03,   7.07107E-03,       1.41250,NA,NA,"",   10.0315E-03,            0.,       1.41317,   31.4842E-06,   3.29941E+03
C:/ALETube/PressureUpdate/LargeStep/DeformErode/JobErode.odb,Step-1,Increment      8: Step Time =,    80.00,"TUBE-1",         18735,   5.87785E-03,   8.09017E-03,       1.42500,NA,NA,"",   10.0317E-03,            0.,       1.42565,   31.7005E-06,   3.32149E+03
C:/ALETube/PressureUpdate/LargeStep/DeformErode/JobErode.odb,Step-1,Increment      8: Step Time =,    80.00,"TUBE-1",         18701,   7.07107E-03,   7.07107E-03,       1.42500,NA,NA,"",   10.0318E-03,            0.,       1.42565,   31.7619E-06,   3.32845E+03
C:/ALETube/PressureUpdate/LargeStep/DeformErode/JobErode.odb,Step-1,Increment      8: Step Time =,    80.00,"TUBE-1",         18899,   5.87785E-03,   8.09017E-03,        1.4375,NA,NA,"",   10.0320E-03,            0.,       1.43814,   31.9776E-06,   3.35046E+03
C:/ALETube/PressureUpdate/LargeStep/DeformErode/JobErode.odb,Step-1,Increment      8: Step Time =,    80.00,"TUBE-1",         18865,   7.07107E-03,   7.07107E-03,        1.4375,NA,NA,"",   10.0320E-03,            0.,       1.43814,   32.0395E-06,   3.35747E+03
C:/ALETube/PressureUpdate/LargeStep/DeformErode/JobErode.odb,Step-1,Increment      8: Step Time =,    80.00,"TUBE-1",         19029,   7.07107E-03,   7.07107E-03,       1.45000,NA,NA,"",   10.0323E-03,            0.,       1.45063,   32.3170E-06,    3.3865E+03
C:/ALETube/PressureUpdate/LargeStep/DeformErode/JobErode.odb,Step-1,Increment      8: Step Time =,    80.00,"TUBE-1",         19063,   5.87785E-03,   8.09017E-03,       1.45000,NA,NA,"",   10.0323E-03,            0.,       1.45063,   32.2546E-06,   3.37942E+03
C:/ALETube/PressureUpdate/LargeStep/DeformErode/JobErode.odb,Step-1,Increment      8: Step Time =,    80.00,"TUBE-1",         19227,   5.87785E-03,   8.09017E-03,       1.46250,NA,NA,"",   10.0325E-03,            0.,       1.46312,   32.5316E-06,   3.40838E+03
C:/ALETube/PressureUpdate/LargeStep/DeformErode/JobErode.odb,Step-1,Increment      8: Step Time =,    80.00,"TUBE-1",         19193,   7.07107E-03,   7.07107E-03,       1.46250,NA,NA,"",   10.0326E-03,            0.,       1.46312,   32.5946E-06,   3.41552E+03
C:/ALETube/PressureUpdate/LargeStep/DeformErode/JobErode.odb,Step-1,Increment      8: Step Time =,    80.00,"TUBE-1",         19391,   5.87785E-03,   8.09017E-03,       1.47500,NA,NA,"",   10.0328E-03,  -867.362E-21,       1.47561,   32.8086E-06,   3.43734E+03
C:/ALETube/PressureUpdate/LargeStep/DeformErode/JobErode.odb,Step-1,Increment      8: Step Time =,    80.00,"TUBE-1",         19357,   7.07107E-03,   7.07107E-03,       1.47500,NA,NA,"",   10.0329E-03,            0.,       1.47561,   32.8721E-06,   3.44454E+03
C:/ALETube/PressureUpdate/LargeStep/DeformErode/JobErode.odb,Step-1,Increment      8: Step Time =,    80.00,"TUBE-1",         19555,   5.87785E-03,   8.09017E-03,       1.48750,NA,NA,"",   10.0331E-03,   867.362E-21,       1.48809,   33.0856E-06,   3.46629E+03
C:/ALETube/PressureUpdate/LargeStep/DeformErode/JobErode.odb,Step-1,Increment      8: Step Time =,    80.00,"TUBE-1",         19521,   7.07107E-03,   7.07107E-03,       1.48750,NA,NA,"",   10.0331E-03,            0.,       1.48809,   33.1496E-06,   3.47355E+03
C:/ALETube/PressureUpdate/LargeStep/DeformErode/JobErode.odb,Step-1,Increment      8: Step Time =,    80.00,"TUBE-1",         19719,   5.87785E-03,   8.09017E-03,           1.5,NA,NA,"",   10.0334E-03,  -867.362E-21,       1.50058,   33.3625E-06,   3.49524E+03
C:/ALETube/PressureUpdate/LargeStep/DeformErode/JobErode.odb,Step-1,Increment      8: Step Time =,    80.00,"TUBE-1",         19685,   7.07107E-03,   7.07107E-03,           1.5,NA,NA,"",   10.0334E-03,            0.,       1.50058,   33.4271E-06,   3.50256E+03
C:/ALETube/PressureUpdate/LargeStep/DeformErode/JobErode.odb,Step-1,Increment      8: Step Time =,    80.00,"TUBE-1",         19849,   7.07107E-03,   7.07107E-03,       1.51250,NA,NA,"",   10.0337E-03,            0.,       1.51307,   33.7045E-06,   3.53157E+03
C:/ALETube/PressureUpdate/LargeStep/DeformErode/JobErode.odb,Step-1,Increment      8: Step Time =,    80.00,"TUBE-1",         19883,   5.87785E-03,   8.09017E-03,       1.51250,NA,NA,"",   10.0336E-03,   867.362E-21,       1.51307,   33.6394E-06,   3.52419E+03
C:/ALETube/PressureUpdate/LargeStep/DeformErode/JobErode.odb,Step-1,Increment      8: Step Time =,    80.00,"TUBE-1",         20047,   5.87785E-03,   8.09017E-03,       1.52500,NA,NA,"",   10.0339E-03,            0.,       1.52556,   33.9163E-06,   3.55313E+03
C:/ALETube/PressureUpdate/LargeStep/DeformErode/JobErode.odb,Step-1,Increment      8: Step Time =,    80.00,"TUBE-1",         20013,   7.07107E-03,   7.07107E-03,       1.52500,NA,NA,"",   10.0340E-03,            0.,       1.52556,   33.9819E-06,   3.56057E+03
C:/ALETube/PressureUpdate/LargeStep/DeformErode/JobErode.odb,Step-1,Increment      8: Step Time =,    80.00,"TUBE-1",         20211,   5.87785E-03,   8.09017E-03,       1.53750,NA,NA,"",   10.0342E-03,  -867.362E-21,       1.53804,   34.1932E-06,   3.58207E+03
C:/ALETube/PressureUpdate/LargeStep/DeformErode/JobErode.odb,Step-1,Increment      8: Step Time =,    80.00,"TUBE-1",         20177,   7.07107E-03,   7.07107E-03,       1.53750,NA,NA,"",   10.0343E-03,            0.,       1.53804,   34.2593E-06,   3.58957E+03
C:/ALETube/PressureUpdate/LargeStep/DeformErode/JobErode.odb,Step-1,Increment      8: Step Time =,    80.00,"TUBE-1",         20375,   5.87785E-03,   8.09017E-03,       1.55000,NA,NA,"",   10.0345E-03,  -867.362E-21,       1.55053,   34.4700E-06,   3.61100E+03
C:/ALETube/PressureUpdate/LargeStep/DeformErode/JobErode.odb,Step-1,Increment      8: Step Time =,    80.00,"TUBE-1",         20341,   7.07107E-03,   7.07107E-03,       1.55000,NA,NA,"",   10.0345E-03,            0.,       1.55053,   34.5366E-06,   3.61856E+03
C:/ALETube/PressureUpdate/LargeStep/DeformErode/JobErode.odb,Step-1,Increment      8: Step Time =,    80.00,"TUBE-1",         20539,   5.87785E-03,   8.09017E-03,        1.5625,NA,NA,"",   10.0347E-03,   867.362E-21,       1.56302,   34.7468E-06,   3.63993E+03
C:/ALETube/PressureUpdate/LargeStep/DeformErode/JobErode.odb,Step-1,Increment      8: Step Time =,    80.00,"TUBE-1",         20505,   7.07107E-03,   7.07107E-03,        1.5625,NA,NA,"",   10.0348E-03,            0.,       1.56302,   34.8140E-06,   3.64755E+03
C:/ALETube/PressureUpdate/LargeStep/DeformErode/JobErode.odb,Step-1,Increment      8: Step Time =,    80.00,"TUBE-1",         20669,   7.07107E-03,   7.07107E-03,       1.57500,NA,NA,"",   10.0351E-03,            0.,       1.57550,   35.0913E-06,   3.67654E+03
C:/ALETube/PressureUpdate/LargeStep/DeformErode/JobErode.odb,Step-1,Increment      8: Step Time =,    80.00,"TUBE-1",         20703,   5.87785E-03,   8.09017E-03,       1.57500,NA,NA,"",   10.0350E-03,            0.,       1.57550,   35.0236E-06,   3.66886E+03
C:/ALETube/PressureUpdate/LargeStep/DeformErode/JobErode.odb,Step-1,Increment      8: Step Time =,    80.00,"TUBE-1",         20867,   5.87785E-03,   8.09017E-03,       1.58750,NA,NA,"",   10.0353E-03,            0.,       1.58799,   35.3004E-06,   3.69779E+03
C:/ALETube/PressureUpdate/LargeStep/DeformErode/JobErode.odb,Step-1,Increment      8: Step Time =,    80.00,"TUBE-1",         20833,   7.07107E-03,   7.07107E-03,       1.58750,NA,NA,"",   10.0354E-03,            0.,       1.58799,   35.3686E-06,   3.70553E+03
C:/ALETube/PressureUpdate/LargeStep/DeformErode/JobErode.odb,Step-1,Increment      8: Step Time =,    80.00,"TUBE-1",         21031,   5.87785E-03,   8.09017E-03,       1.60000,NA,NA,"",   10.0356E-03,            0.,       1.60048,   35.5771E-06,   3.72671E+03
C:/ALETube/PressureUpdate/LargeStep/DeformErode/JobErode.odb,Step-1,Increment      8: Step Time =,    80.00,"TUBE-1",         20997,   7.07107E-03,   7.07107E-03,       1.60000,NA,NA,"",   10.0356E-03,            0.,       1.60048,   35.6459E-06,   3.73451E+03
C:/ALETube/PressureUpdate/LargeStep/DeformErode/JobErode.odb,Step-1,Increment      8: Step Time =,    80.00,"TUBE-1",         21195,   5.87785E-03,   8.09017E-03,       1.61250,NA,NA,"",   10.0359E-03,  -867.362E-21,       1.61296,   35.8538E-06,   3.75562E+03
C:/ALETube/PressureUpdate/LargeStep/DeformErode/JobErode.odb,Step-1,Increment      8: Step Time =,    80.00,"TUBE-1",         21161,   7.07107E-03,   7.07107E-03,       1.61250,NA,NA,"",   10.0359E-03,            0.,       1.61296,   35.9231E-06,   3.76348E+03
C:/ALETube/PressureUpdate/LargeStep/DeformErode/JobErode.odb,Step-1,Increment      8: Step Time =,    80.00,"TUBE-1",         21359,   5.87785E-03,   8.09017E-03,         1.625,NA,NA,"",   10.0361E-03,            0.,       1.62545,   36.1305E-06,   3.78454E+03
C:/ALETube/PressureUpdate/LargeStep/DeformErode/JobErode.odb,Step-1,Increment      8: Step Time =,    80.00,"TUBE-1",         21325,   7.07107E-03,   7.07107E-03,         1.625,NA,NA,"",   10.0362E-03,            0.,       1.62545,   36.2003E-06,   3.79245E+03
C:/ALETube/PressureUpdate/LargeStep/DeformErode/JobErode.odb,Step-1,Increment      8: Step Time =,    80.00,"TUBE-1",         21489,   7.07107E-03,   7.07107E-03,       1.63750,NA,NA,"",   10.0365E-03,            0.,       1.63794,   36.4775E-06,   3.82142E+03
C:/ALETube/PressureUpdate/LargeStep/DeformErode/JobErode.odb,Step-1,Increment      8: Step Time =,    80.00,"TUBE-1",         21523,   5.87785E-03,   8.09017E-03,       1.63750,NA,NA,"",   10.0364E-03,            0.,       1.63794,   36.4071E-06,   3.81344E+03
C:/ALETube/PressureUpdate/LargeStep/DeformErode/JobErode.odb,Step-1,Increment      8: Step Time =,    80.00,"TUBE-1",         21687,   5.87785E-03,   8.09017E-03,       1.65000,NA,NA,"",   10.0367E-03,  -867.362E-21,       1.65042,   36.6837E-06,   3.84234E+03
C:/ALETube/PressureUpdate/LargeStep/DeformErode/JobErode.odb,Step-1,Increment      8: Step Time =,    80.00,"TUBE-1",         21653,   7.07107E-03,   7.07107E-03,       1.65000,NA,NA,"",   10.0368E-03,            0.,       1.65042,   36.7546E-06,   3.85038E+03
C:/ALETube/PressureUpdate/LargeStep/DeformErode/JobErode.odb,Step-1,Increment      8: Step Time =,    80.00,"TUBE-1",         21851,   5.87785E-03,   8.09017E-03,       1.66250,NA,NA,"",   10.0370E-03,            0.,       1.66291,   36.9603E-06,   3.87124E+03
C:/ALETube/PressureUpdate/LargeStep/DeformErode/JobErode.odb,Step-1,Increment      8: Step Time =,    80.00,"TUBE-1",         21817,   7.07107E-03,   7.07107E-03,       1.66250,NA,NA,"",   10.0370E-03,            0.,       1.66291,   37.0317E-06,   3.87934E+03
C:/ALETube/PressureUpdate/LargeStep/DeformErode/JobErode.odb,Step-1,Increment      8: Step Time =,    80.00,"TUBE-1",         22015,   5.87785E-03,   8.09017E-03,       1.67500,NA,NA,"",   10.0372E-03,            0.,       1.67540,   37.2371E-06,   3.90016E+03
C:/ALETube/PressureUpdate/LargeStep/DeformErode/JobErode.odb,Step-1,Increment      8: Step Time =,    80.00,"TUBE-1",         21981,   7.07107E-03,   7.07107E-03,       1.67500,NA,NA,"",   10.0373E-03,            0.,       1.67540,   37.3090E-06,   3.90831E+03
C:/ALETube/PressureUpdate/LargeStep/DeformErode/JobErode.odb,Step-1,Increment      8: Step Time =,    80.00,"TUBE-1",         22179,   5.87785E-03,   8.09017E-03,        1.6875,NA,NA,"",   10.0375E-03,            0.,       1.68788,   37.5136E-06,   3.92905E+03
C:/ALETube/PressureUpdate/LargeStep/DeformErode/JobErode.odb,Step-1,Increment      8: Step Time =,    80.00,"TUBE-1",         22145,   7.07107E-03,   7.07107E-03,        1.6875,NA,NA,"",   10.0376E-03,            0.,       1.68788,   37.5860E-06,   3.93726E+03
C:/ALETube/PressureUpdate/LargeStep/DeformErode/JobErode.odb,Step-1,Increment      8: Step Time =,    80.00,"TUBE-1",         22309,   7.07107E-03,   7.07107E-03,       1.70000,NA,NA,"",   10.0379E-03,            0.,       1.70037,   37.8630E-06,   3.96621E+03
C:/ALETube/PressureUpdate/LargeStep/DeformErode/JobErode.odb,Step-1,Increment      8: Step Time =,    80.00,"TUBE-1",         22343,   5.87785E-03,   8.09017E-03,       1.70000,NA,NA,"",   10.0378E-03,            0.,       1.70037,   37.7901E-06,   3.95794E+03
C:/ALETube/PressureUpdate/LargeStep/DeformErode/JobErode.odb,Step-1,Increment      8: Step Time =,    80.00,"TUBE-1",         22507,   5.87785E-03,   8.09017E-03,       1.71250,NA,NA,"",   10.0381E-03,  -867.362E-21,       1.71285,   38.0666E-06,   3.98682E+03
C:/ALETube/PressureUpdate/LargeStep/DeformErode/JobErode.odb,Step-1,Increment      8: Step Time =,    80.00,"TUBE-1",         22473,   7.07107E-03,   7.07107E-03,       1.71250,NA,NA,"",   10.0381E-03,            0.,       1.71285,   38.1401E-06,   3.99515E+03
C:/ALETube/PressureUpdate/LargeStep/DeformErode/JobErode.odb,Step-1,Increment      8: Step Time =,    80.00,"TUBE-1",         22671,   5.87785E-03,   8.09017E-03,       1.72500,NA,NA,"",   10.0383E-03,            0.,       1.72534,   38.3431E-06,   4.01571E+03
C:/ALETube/PressureUpdate/LargeStep/DeformErode/JobErode.odb,Step-1,Increment      8: Step Time =,    80.00,"TUBE-1",         22637,   7.07107E-03,   7.07107E-03,       1.72500,NA,NA,"",   10.0384E-03,            0.,       1.72534,   38.4171E-06,   4.02409E+03
C:/ALETube/PressureUpdate/LargeStep/DeformErode/JobErode.odb,Step-1,Increment      8: Step Time =,    80.00,"TUBE-1",         22835,   5.87785E-03,   8.09017E-03,       1.73750,NA,NA,"",   10.0386E-03,  -867.362E-21,       1.73782,   38.6197E-06,   4.04460E+03
C:/ALETube/PressureUpdate/LargeStep/DeformErode/JobErode.odb,Step-1,Increment      8: Step Time =,    80.00,"TUBE-1",         22801,   7.07107E-03,   7.07107E-03,       1.73750,NA,NA,"",   10.0387E-03,            0.,       1.73782,   38.6942E-06,   4.05304E+03
C:/ALETube/PressureUpdate/LargeStep/DeformErode/JobErode.odb,Step-1,Increment      8: Step Time =,    80.00,"TUBE-1",         22999,   5.87785E-03,   8.09017E-03,          1.75,NA,NA,"",   10.0389E-03,  -867.362E-21,       1.75031,   38.8961E-06,   4.07347E+03
C:/ALETube/PressureUpdate/LargeStep/DeformErode/JobErode.odb,Step-1,Increment      8: Step Time =,    80.00,"TUBE-1",         22965,   7.07107E-03,   7.07107E-03,          1.75,NA,NA,"",   10.0390E-03,            0.,       1.75031,   38.9711E-06,   4.08197E+03
C:/ALETube/PressureUpdate/LargeStep/DeformErode/JobErode.odb,Step-1,Increment      8: Step Time =,    80.00,"TUBE-1",         23129,   7.07107E-03,   7.07107E-03,       1.76250,NA,NA,"",   10.0392E-03,            0.,       1.76280,   39.2480E-06,   4.11090E+03
C:/ALETube/PressureUpdate/LargeStep/DeformErode/JobErode.odb,Step-1,Increment      8: Step Time =,    80.00,"TUBE-1",         23163,   5.87785E-03,   8.09017E-03,       1.76250,NA,NA,"",   10.0392E-03,  -867.362E-21,       1.76280,   39.1725E-06,   4.10234E+03
C:/ALETube/PressureUpdate/LargeStep/DeformErode/JobErode.odb,Step-1,Increment      8: Step Time =,    80.00,"TUBE-1",         23327,   5.87785E-03,   8.09017E-03,       1.77500,NA,NA,"",   10.0394E-03,            0.,       1.77528,   39.4489E-06,   4.13122E+03
C:/ALETube/PressureUpdate/LargeStep/DeformErode/JobErode.odb,Step-1,Increment      8: Step Time =,    80.00,"TUBE-1",         23293,   7.07107E-03,   7.07107E-03,       1.77500,NA,NA,"",   10.0395E-03,            0.,       1.77528,   39.5249E-06,   4.13984E+03
C:/ALETube/PressureUpdate/LargeStep/DeformErode/JobErode.odb,Step-1,Increment      8: Step Time =,    80.00,"TUBE-1",         23491,   5.87785E-03,   8.09017E-03,       1.78750,NA,NA,"",   10.0397E-03,            0.,       1.78777,   39.7252E-06,   4.16008E+03
C:/ALETube/PressureUpdate/LargeStep/DeformErode/JobErode.odb,Step-1,Increment      8: Step Time =,    80.00,"TUBE-1",         23457,   7.07107E-03,   7.07107E-03,       1.78750,NA,NA,"",   10.0398E-03,            0.,       1.78777,   39.8018E-06,   4.16876E+03
C:/ALETube/PressureUpdate/LargeStep/DeformErode/JobErode.odb,Step-1,Increment      8: Step Time =,    80.00,"TUBE-1",         23655,   5.87785E-03,   8.09017E-03,       1.80000,NA,NA,"",   10.0400E-03,            0.,       1.80025,   40.0016E-06,   4.18894E+03
C:/ALETube/PressureUpdate/LargeStep/DeformErode/JobErode.odb,Step-1,Increment      8: Step Time =,    80.00,"TUBE-1",         23621,   7.07107E-03,   7.07107E-03,       1.80000,NA,NA,"",   10.0401E-03,            0.,       1.80025,   40.0786E-06,   4.19768E+03
C:/ALETube/PressureUpdate/LargeStep/DeformErode/JobErode.odb,Step-1,Increment      8: Step Time =,    80.00,"TUBE-1",         23819,   5.87785E-03,   8.09017E-03,        1.8125,NA,NA,"",   10.0403E-03,            0.,       1.81274,   40.2779E-06,   4.21780E+03
C:/ALETube/PressureUpdate/LargeStep/DeformErode/JobErode.odb,Step-1,Increment      8: Step Time =,    80.00,"TUBE-1",         23785,   7.07107E-03,   7.07107E-03,        1.8125,NA,NA,"",   10.0404E-03,            0.,       1.81274,   40.3555E-06,   4.22659E+03
C:/ALETube/PressureUpdate/LargeStep/DeformErode/JobErode.odb,Step-1,Increment      8: Step Time =,    80.00,"TUBE-1",         23949,   7.07107E-03,   7.07107E-03,       1.82500,NA,NA,"",   10.0406E-03,            0.,       1.82522,   40.6322E-06,   4.25550E+03
C:/ALETube/PressureUpdate/LargeStep/DeformErode/JobErode.odb,Step-1,Increment      8: Step Time =,    80.00,"TUBE-1",         23983,   5.87785E-03,   8.09017E-03,       1.82500,NA,NA,"",   10.0406E-03,   867.362E-21,       1.82522,   40.5541E-06,   4.24665E+03
C:/ALETube/PressureUpdate/LargeStep/DeformErode/JobErode.odb,Step-1,Increment      8: Step Time =,    80.00,"TUBE-1",         24147,   5.87785E-03,   8.09017E-03,       1.83750,NA,NA,"",   10.0408E-03,            0.,       1.83771,   40.8303E-06,   4.27549E+03
C:/ALETube/PressureUpdate/LargeStep/DeformErode/JobErode.odb,Step-1,Increment      8: Step Time =,    80.00,"TUBE-1",         24113,   7.07107E-03,   7.07107E-03,       1.83750,NA,NA,"",   10.0409E-03,            0.,       1.83771,   40.9090E-06,   4.28441E+03
C:/ALETube/PressureUpdate/LargeStep/DeformErode/JobErode.odb,Step-1,Increment      8: Step Time =,    80.00,"TUBE-1",         24311,   5.87785E-03,   8.09017E-03,       1.85000,NA,NA,"",   10.0411E-03,            0.,       1.85019,   41.1066E-06,   4.30434E+03
C:/ALETube/PressureUpdate/LargeStep/DeformErode/JobErode.odb,Step-1,Increment      8: Step Time =,    80.00,"TUBE-1",         24277,   7.07107E-03,   7.07107E-03,       1.85000,NA,NA,"",   10.0412E-03,            0.,       1.85019,   41.1857E-06,   4.31331E+03
C:/ALETube/PressureUpdate/LargeStep/DeformErode/JobErode.odb,Step-1,Increment      8: Step Time =,    80.00,"TUBE-1",         24475,   5.87785E-03,   8.09017E-03,       1.86250,NA,NA,"",   10.0414E-03,            0.,       1.86268,   41.3827E-06,   4.33318E+03
C:/ALETube/PressureUpdate/LargeStep/DeformErode/JobErode.odb,Step-1,Increment      8: Step Time =,    80.00,"TUBE-1",         24441,   7.07107E-03,   7.07107E-03,       1.86250,NA,NA,"",   10.0415E-03,            0.,       1.86268,   41.4624E-06,   4.34221E+03
C:/ALETube/PressureUpdate/LargeStep/DeformErode/JobErode.odb,Step-1,Increment      8: Step Time =,    80.00,"TUBE-1",         24639,   5.87785E-03,   8.09017E-03,         1.875,NA,NA,"",   10.0417E-03,            0.,       1.87516,   41.6589E-06,   4.36201E+03
C:/ALETube/PressureUpdate/LargeStep/DeformErode/JobErode.odb,Step-1,Increment      8: Step Time =,    80.00,"TUBE-1",         24605,   7.07107E-03,   7.07107E-03,         1.875,NA,NA,"",   10.0417E-03,            0.,       1.87516,   41.7391E-06,   4.37111E+03
C:/ALETube/PressureUpdate/LargeStep/DeformErode/JobErode.odb,Step-1,Increment      8: Step Time =,    80.00,"TUBE-1",         24769,   7.07107E-03,   7.07107E-03,       1.88750,NA,NA,"",   10.0420E-03,            0.,       1.88764,   42.0157E-06,   4.40000E+03
C:/ALETube/PressureUpdate/LargeStep/DeformErode/JobErode.odb,Step-1,Increment      8: Step Time =,    80.00,"TUBE-1",         24803,   5.87785E-03,   8.09017E-03,       1.88750,NA,NA,"",   10.0419E-03,            0.,       1.88764,   41.9350E-06,   4.39084E+03
C:/ALETube/PressureUpdate/LargeStep/DeformErode/JobErode.odb,Step-1,Increment      8: Step Time =,    80.00,"TUBE-1",         24967,   5.87785E-03,   8.09017E-03,       1.90000,NA,NA,"",   10.0422E-03,            0.,       1.90013,   42.2111E-06,   4.41967E+03
C:/ALETube/PressureUpdate/LargeStep/DeformErode/JobErode.odb,Step-1,Increment      8: Step Time =,    80.00,"TUBE-1",         24933,   7.07107E-03,   7.07107E-03,       1.90000,NA,NA,"",   10.0423E-03,            0.,       1.90013,   42.2923E-06,   4.42889E+03
C:/ALETube/PressureUpdate/LargeStep/DeformErode/JobErode.odb,Step-1,Increment      8: Step Time =,    80.00,"TUBE-1",         25131,   5.87785E-03,   8.09017E-03,       1.91250,NA,NA,"",   10.0425E-03,            0.,       1.91261,   42.4871E-06,   4.44849E+03
C:/ALETube/PressureUpdate/LargeStep/DeformErode/JobErode.odb,Step-1,Increment      8: Step Time =,    80.00,"TUBE-1",         25097,   7.07107E-03,   7.07107E-03,       1.91250,NA,NA,"",   10.0426E-03,            0.,       1.91261,   42.5689E-06,   4.45776E+03
C:/ALETube/PressureUpdate/LargeStep/DeformErode/JobErode.odb,Step-1,Increment      8: Step Time =,    80.00,"TUBE-1",         25295,   5.87785E-03,   8.09017E-03,       1.92500,NA,NA,"",   10.0428E-03,            0.,       1.92510,   42.7632E-06,   4.47732E+03
C:/ALETube/PressureUpdate/LargeStep/DeformErode/JobErode.odb,Step-1,Increment      8: Step Time =,    80.00,"TUBE-1",         25261,   7.07107E-03,   7.07107E-03,       1.92500,NA,NA,"",   10.0428E-03,            0.,       1.92510,   42.8455E-06,   4.48665E+03
C:/ALETube/PressureUpdate/LargeStep/DeformErode/JobErode.odb,Step-1,Increment      8: Step Time =,    80.00,"TUBE-1",         25459,   5.87785E-03,   8.09017E-03,        1.9375,NA,NA,"",   10.0430E-03,            0.,       1.93758,   43.0390E-06,   4.50610E+03
C:/ALETube/PressureUpdate/LargeStep/DeformErode/JobErode.odb,Step-1,Increment      8: Step Time =,    80.00,"TUBE-1",         25425,   7.07107E-03,   7.07107E-03,        1.9375,NA,NA,"",   10.0431E-03,            0.,       1.93758,   43.1218E-06,   4.51549E+03
C:/ALETube/PressureUpdate/LargeStep/DeformErode/JobErode.odb,Step-1,Increment      8: Step Time =,    80.00,"TUBE-1",         25589,   7.07107E-03,   7.07107E-03,       1.95000,NA,NA,"",   10.0434E-03,            0.,       1.95007,   43.3994E-06,   4.54447E+03
C:/ALETube/PressureUpdate/LargeStep/DeformErode/JobErode.odb,Step-1,Increment      8: Step Time =,    80.00,"TUBE-1",         25623,   5.87785E-03,   8.09017E-03,       1.95000,NA,NA,"",   10.0433E-03,  -867.362E-21,       1.95007,   43.3160E-06,   4.53501E+03
C:/ALETube/PressureUpdate/LargeStep/DeformErode/JobErode.odb,Step-1,Increment      8: Step Time =,    80.00,"TUBE-1",         25787,   5.87785E-03,   8.09017E-03,       1.96250,NA,NA,"",   10.0436E-03,  -867.362E-21,       1.96255,   43.5877E-06,   4.56345E+03
C:/ALETube/PressureUpdate/LargeStep/DeformErode/JobErode.odb,Step-1,Increment      8: Step Time =,    80.00,"TUBE-1",         25753,   7.07107E-03,   7.07107E-03,       1.96250,NA,NA,"",   10.0437E-03,            0.,       1.96255,   43.6714E-06,   4.57293E+03
C:/ALETube/PressureUpdate/LargeStep/DeformErode/JobErode.odb,Step-1,Increment      8: Step Time =,    80.00,"TUBE-1",         25951,   5.87785E-03,   8.09017E-03,       1.97500,NA,NA,"",   10.0439E-03,   867.362E-21,       1.97503,   43.8703E-06,   4.59265E+03
C:/ALETube/PressureUpdate/LargeStep/DeformErode/JobErode.odb,Step-1,Increment      8: Step Time =,    80.00,"TUBE-1",         25917,   7.07107E-03,   7.07107E-03,       1.97500,NA,NA,"",   10.0440E-03,            0.,       1.97503,   43.9540E-06,   4.60220E+03
C:/ALETube/PressureUpdate/LargeStep/DeformErode/JobErode.odb,Step-1,Increment      8: Step Time =,    80.00,"TUBE-1",         26115,   5.87785E-03,   8.09017E-03,       1.98750,NA,NA,"",   10.0442E-03,            0.,       1.98751,   44.1616E-06,   4.62268E+03
C:/ALETube/PressureUpdate/LargeStep/DeformErode/JobErode.odb,Step-1,Increment      8: Step Time =,    80.00,"TUBE-1",         26081,   7.07107E-03,   7.07107E-03,       1.98750,NA,NA,"",   10.0443E-03,            0.,       1.98751,   44.2512E-06,   4.63264E+03
C:/ALETube/PressureUpdate/LargeStep/DeformErode/JobErode.odb,Step-1,Increment      8: Step Time =,    80.00,"TUBE-1",         26279,   5.87785E-03,   8.09017E-03,            2.,NA,NA,"",   10.0443E-03,  -376.728E-12,            2.,   44.2750E-06,   4.63042E+03
C:/ALETube/PressureUpdate/LargeStep/DeformErode/JobErode.odb,Step-1,Increment      8: Step Time =,    80.00,"TUBE-1",         26245,   7.07107E-03,   7.07107E-03,            2.,NA,NA,"",   10.0444E-03,            0.,            2.,   44.3536E-06,   4.64227E+03
C:/ALETube/PressureUpdate/LargeStep/DeformErode/JobErode.odb,Step-1,Increment      9: Step Time =,    90.00,"TUBE-1",            39,   5.87785E-03,   8.09017E-03,            0.,NA,NA,"",   9.99991E-03,  -867.362E-21,   1.30903E-03,  -92.9108E-09,       6.24990
C:/ALETube/PressureUpdate/LargeStep/DeformErode/JobErode.odb,Step-1,Increment      9: Step Time =,    90.00,"TUBE-1",             5,   7.07107E-03,   7.07107E-03,            0.,NA,NA,"",   9.99991E-03,            0.,   1.30903E-03,  -92.5086E-09,       6.24057
C:/ALETube/PressureUpdate/LargeStep/DeformErode/JobErode.odb,Step-1,Increment      9: Step Time =,    90.00,"TUBE-1",           203,   5.87785E-03,   8.09017E-03,   12.5000E-03,NA,NA,"",   10.0002E-03,            0.,   13.8144E-03,   224.116E-09,       22.4033
C:/ALETube/PressureUpdate/LargeStep/DeformErode/JobErode.odb,Step-1,Increment      9: Step Time =,    90.00,"TUBE-1",           169,   7.07107E-03,   7.07107E-03,   12.5000E-03,NA,NA,"",   10.0002E-03,            0.,   13.8131E-03,   224.807E-09,       22.4748
C:/ALETube/PressureUpdate/LargeStep/DeformErode/JobErode.odb,Step-1,Increment      9: Step Time =,    90.00,"TUBE-1",           333,   7.07107E-03,   7.07107E-03,   25.0000E-03,NA,NA,"",   10.0005E-03,            0.,   26.3092E-03,   482.768E-09,       51.4333
C:/ALETube/PressureUpdate/LargeStep/DeformErode/JobErode.odb,Step-1,Increment      9: Step Time =,    90.00,"TUBE-1",           367,   5.87785E-03,   8.09017E-03,   25.0000E-03,NA,NA,"",   10.0005E-03,  -867.362E-21,   26.3093E-03,   481.414E-09,       51.2837
C:/ALETube/PressureUpdate/LargeStep/DeformErode/JobErode.odb,Step-1,Increment      9: Step Time =,    90.00,"TUBE-1",           531,   5.87785E-03,   8.09017E-03,   37.5000E-03,NA,NA,"",   10.0008E-03,            0.,   38.8087E-03,   761.416E-09,       79.7331
C:/ALETube/PressureUpdate/LargeStep/DeformErode/JobErode.odb,Step-1,Increment      9: Step Time =,    90.00,"TUBE-1",           497,   7.07107E-03,   7.07107E-03,   37.5000E-03,NA,NA,"",   10.0008E-03,            0.,   38.8087E-03,   763.503E-09,       79.9611
C:/ALETube/PressureUpdate/LargeStep/DeformErode/JobErode.odb,Step-1,Increment      9: Step Time =,    90.00,"TUBE-1",           695,   5.87785E-03,   8.09017E-03,   50.0000E-03,NA,NA,"",   10.0010E-03,  -867.362E-21,   51.3083E-03,   1.03403E-06,       108.745
C:/ALETube/PressureUpdate/LargeStep/DeformErode/JobErode.odb,Step-1,Increment      9: Step Time =,    90.00,"TUBE-1",           661,   7.07107E-03,   7.07107E-03,   50.0000E-03,NA,NA,"",   10.0010E-03,            0.,   51.3083E-03,   1.03682E-06,       109.050
C:/ALETube/PressureUpdate/LargeStep/DeformErode/JobErode.odb,Step-1,Increment      9: Step Time =,    90.00,"TUBE-1",           825,   7.07107E-03,   7.07107E-03,      62.5E-03,NA,NA,"",   10.0013E-03,            0.,   63.8079E-03,   1.31291E-06,       137.839
C:/ALETube/PressureUpdate/LargeStep/DeformErode/JobErode.odb,Step-1,Increment      9: Step Time =,    90.00,"TUBE-1",           859,   5.87785E-03,   8.09017E-03,      62.5E-03,NA,NA,"",   10.0013E-03,            0.,   63.8079E-03,   1.30941E-06,       137.456
C:/ALETube/PressureUpdate/LargeStep/DeformErode/JobErode.odb,Step-1,Increment      9: Step Time =,    90.00,"TUBE-1",          1023,   5.87785E-03,   8.09017E-03,   75.0000E-03,NA,NA,"",   10.0016E-03,  -867.362E-21,   76.3073E-03,   1.58346E-06,       166.310
C:/ALETube/PressureUpdate/LargeStep/DeformErode/JobErode.odb,Step-1,Increment      9: Step Time =,    90.00,"TUBE-1",           989,   7.07107E-03,   7.07107E-03,   75.0000E-03,NA,NA,"",   10.0016E-03,            0.,   76.3073E-03,   1.58767E-06,       166.771
C:/ALETube/PressureUpdate/LargeStep/DeformErode/JobErode.odb,Step-1,Increment      9: Step Time =,    90.00,"TUBE-1",          1187,   5.87785E-03,   8.09017E-03,   87.5000E-03,NA,NA,"",   10.0019E-03,   867.362E-21,   88.8067E-03,   1.85813E-06,       195.097
C:/ALETube/PressureUpdate/LargeStep/DeformErode/JobErode.odb,Step-1,Increment      9: Step Time =,    90.00,"TUBE-1",          1153,   7.07107E-03,   7.07107E-03,   87.5000E-03,NA,NA,"",   10.0019E-03,            0.,   88.8067E-03,   1.86304E-06,       195.636
C:/ALETube/PressureUpdate/LargeStep/DeformErode/JobErode.odb,Step-1,Increment      9: Step Time =,    90.00,"TUBE-1",          1351,   5.87785E-03,   8.09017E-03,   100.000E-03,NA,NA,"",   10.0021E-03,  -867.362E-21,   101.306E-03,   2.13247E-06,       223.912
C:/ALETube/PressureUpdate/LargeStep/DeformErode/JobErode.odb,Step-1,Increment      9: Step Time =,    90.00,"TUBE-1",          1317,   7.07107E-03,   7.07107E-03,   100.000E-03,NA,NA,"",   10.0021E-03,            0.,   101.306E-03,   2.13809E-06,       224.529
C:/ALETube/PressureUpdate/LargeStep/DeformErode/JobErode.odb,Step-1,Increment      9: Step Time =,    90.00,"TUBE-1",          1515,   5.87785E-03,   8.09017E-03,   112.500E-03,NA,NA,"",   10.0024E-03,            0.,   113.805E-03,   2.40691E-06,       252.710
C:/ALETube/PressureUpdate/LargeStep/DeformErode/JobErode.odb,Step-1,Increment      9: Step Time =,    90.00,"TUBE-1",          1481,   7.07107E-03,   7.07107E-03,   112.500E-03,NA,NA,"",   10.0024E-03,            0.,   113.805E-03,   2.41325E-06,       253.403
C:/ALETube/PressureUpdate/LargeStep/DeformErode/JobErode.odb,Step-1,Increment      9: Step Time =,    90.00,"TUBE-1",          1645,   7.07107E-03,   7.07107E-03,      125.E-03,NA,NA,"",   10.0027E-03,            0.,   126.304E-03,   2.68832E-06,       282.282
C:/ALETube/PressureUpdate/LargeStep/DeformErode/JobErode.odb,Step-1,Increment      9: Step Time =,    90.00,"TUBE-1",          1679,   5.87785E-03,   8.09017E-03,      125.E-03,NA,NA,"",   10.0027E-03,   867.362E-21,   126.304E-03,   2.68128E-06,       281.511
C:/ALETube/PressureUpdate/LargeStep/DeformErode/JobErode.odb,Step-1,Increment      9: Step Time =,    90.00,"TUBE-1",          1843,   5.87785E-03,   8.09017E-03,   137.500E-03,NA,NA,"",   10.0030E-03,            0.,   138.803E-03,   2.95564E-06,       310.306
C:/ALETube/PressureUpdate/LargeStep/DeformErode/JobErode.odb,Step-1,Increment      9: Step Time =,    90.00,"TUBE-1",          1809,   7.07107E-03,   7.07107E-03,   137.500E-03,NA,NA,"",   10.0030E-03,            0.,   138.803E-03,   2.96339E-06,       311.154
C:/ALETube/PressureUpdate/LargeStep/DeformErode/JobErode.odb,Step-1,Increment      9: Step Time =,    90.00,"TUBE-1",          2007,   5.87785E-03,   8.09017E-03,   150.000E-03,NA,NA,"",   10.0032E-03,            0.,   151.302E-03,   3.22997E-06,       339.098
C:/ALETube/PressureUpdate/LargeStep/DeformErode/JobErode.odb,Step-1,Increment      9: Step Time =,    90.00,"TUBE-1",          1973,   7.07107E-03,   7.07107E-03,   150.000E-03,NA,NA,"",   10.0032E-03,            0.,   151.302E-03,   3.23843E-06,       340.024
C:/ALETube/PressureUpdate/LargeStep/DeformErode/JobErode.odb,Step-1,Increment      9: Step Time =,    90.00,"TUBE-1",          2171,   5.87785E-03,   8.09017E-03,   162.500E-03,NA,NA,"",   10.0035E-03,            0.,   163.801E-03,   3.50427E-06,       367.887
C:/ALETube/PressureUpdate/LargeStep/DeformErode/JobErode.odb,Step-1,Increment      9: Step Time =,    90.00,"TUBE-1",          2137,   7.07107E-03,   7.07107E-03,   162.500E-03,NA,NA,"",   10.0035E-03,            0.,   163.801E-03,   3.51344E-06,       368.890
C:/ALETube/PressureUpdate/LargeStep/DeformErode/JobErode.odb,Step-1,Increment      9: Step Time =,    90.00,"TUBE-1",          2335,   5.87785E-03,   8.09017E-03,   175.000E-03,NA,NA,"",   10.0038E-03,   867.362E-21,   176.299E-03,   3.77855E-06,       396.672
C:/ALETube/PressureUpdate/LargeStep/DeformErode/JobErode.odb,Step-1,Increment      9: Step Time =,    90.00,"TUBE-1",          2301,   7.07107E-03,   7.07107E-03,   175.000E-03,NA,NA,"",   10.0038E-03,            0.,   176.299E-03,   3.78843E-06,       397.753
C:/ALETube/PressureUpdate/LargeStep/DeformErode/JobErode.odb,Step-1,Increment      9: Step Time =,    90.00,"TUBE-1",          2465,   7.07107E-03,   7.07107E-03,     187.5E-03,NA,NA,"",   10.0041E-03,            0.,   188.798E-03,   4.06339E-06,       426.612
C:/ALETube/PressureUpdate/LargeStep/DeformErode/JobErode.odb,Step-1,Increment      9: Step Time =,    90.00,"TUBE-1",          2499,   5.87785E-03,   8.09017E-03,     187.5E-03,NA,NA,"",   10.0041E-03,            0.,   188.798E-03,   4.05281E-06,       425.454
C:/ALETube/PressureUpdate/LargeStep/DeformErode/JobErode.odb,Step-1,Increment      9: Step Time =,    90.00,"TUBE-1",          2663,   5.87785E-03,   8.09017E-03,   200.000E-03,NA,NA,"",   10.0043E-03,  -867.362E-21,   201.296E-03,   4.32704E-06,       454.232
C:/ALETube/PressureUpdate/LargeStep/DeformErode/JobErode.odb,Step-1,Increment      9: Step Time =,    90.00,"TUBE-1",          2629,   7.07107E-03,   7.07107E-03,   200.000E-03,NA,NA,"",   10.0043E-03,            0.,   201.296E-03,   4.33832E-06,       455.467
C:/ALETube/PressureUpdate/LargeStep/DeformErode/JobErode.odb,Step-1,Increment      9: Step Time =,    90.00,"TUBE-1",          2827,   5.87785E-03,   8.09017E-03,   212.500E-03,NA,NA,"",   10.0046E-03,            0.,   213.794E-03,   4.60124E-06,       483.006
C:/ALETube/PressureUpdate/LargeStep/DeformErode/JobErode.odb,Step-1,Increment      9: Step Time =,    90.00,"TUBE-1",          2793,   7.07107E-03,   7.07107E-03,   212.500E-03,NA,NA,"",   10.0046E-03,            0.,   213.794E-03,   4.61323E-06,       484.319
C:/ALETube/PressureUpdate/LargeStep/DeformErode/JobErode.odb,Step-1,Increment      9: Step Time =,    90.00,"TUBE-1",          2991,   5.87785E-03,   8.09017E-03,   225.000E-03,NA,NA,"",   10.0049E-03,            0.,   226.293E-03,   4.87542E-06,       511.777
C:/ALETube/PressureUpdate/LargeStep/DeformErode/JobErode.odb,Step-1,Increment      9: Step Time =,    90.00,"TUBE-1",          2957,   7.07107E-03,   7.07107E-03,   225.000E-03,NA,NA,"",   10.0049E-03,            0.,   226.293E-03,   4.88812E-06,       513.167
C:/ALETube/PressureUpdate/LargeStep/DeformErode/JobErode.odb,Step-1,Increment      9: Step Time =,    90.00,"TUBE-1",          3155,   5.87785E-03,   8.09017E-03,   237.500E-03,NA,NA,"",   10.0051E-03,  -867.362E-21,   238.791E-03,   5.14957E-06,       540.544
C:/ALETube/PressureUpdate/LargeStep/DeformErode/JobErode.odb,Step-1,Increment      9: Step Time =,    90.00,"TUBE-1",          3121,   7.07107E-03,   7.07107E-03,   237.500E-03,NA,NA,"",   10.0052E-03,            0.,   238.791E-03,   5.16297E-06,       542.011
C:/ALETube/PressureUpdate/LargeStep/DeformErode/JobErode.odb,Step-1,Increment      9: Step Time =,    90.00,"TUBE-1",          3285,   7.07107E-03,   7.07107E-03,      250.E-03,NA,NA,"",   10.0054E-03,            0.,   251.289E-03,   5.43781E-06,       570.852
C:/ALETube/PressureUpdate/LargeStep/DeformErode/JobErode.odb,Step-1,Increment      9: Step Time =,    90.00,"TUBE-1",          3319,   5.87785E-03,   8.09017E-03,      250.E-03,NA,NA,"",   10.0054E-03,            0.,   251.289E-03,   5.42369E-06,       569.307
C:/ALETube/PressureUpdate/LargeStep/DeformErode/JobErode.odb,Step-1,Increment      9: Step Time =,    90.00,"TUBE-1",          3483,   5.87785E-03,   8.09017E-03,   262.500E-03,NA,NA,"",   10.0057E-03,  -867.362E-21,   263.787E-03,   5.69780E-06,       598.067
C:/ALETube/PressureUpdate/LargeStep/DeformErode/JobErode.odb,Step-1,Increment      9: Step Time =,    90.00,"TUBE-1",          3449,   7.07107E-03,   7.07107E-03,   262.500E-03,NA,NA,"",   10.0057E-03,            0.,   263.787E-03,   5.71261E-06,       599.689
C:/ALETube/PressureUpdate/LargeStep/DeformErode/JobErode.odb,Step-1,Increment      9: Step Time =,    90.00,"TUBE-1",          3647,   5.87785E-03,   8.09017E-03,   275.000E-03,NA,NA,"",   10.0060E-03,            0.,   276.284E-03,   5.97187E-06,       626.823
C:/ALETube/PressureUpdate/LargeStep/DeformErode/JobErode.odb,Step-1,Increment      9: Step Time =,    90.00,"TUBE-1",          3613,   7.07107E-03,   7.07107E-03,   275.000E-03,NA,NA,"",   10.0060E-03,            0.,   276.284E-03,   5.98739E-06,       628.522
C:/ALETube/PressureUpdate/LargeStep/DeformErode/JobErode.odb,Step-1,Increment      9: Step Time =,    90.00,"TUBE-1",          3811,   5.87785E-03,   8.09017E-03,   287.500E-03,NA,NA,"",   10.0062E-03,  -867.362E-21,   288.782E-03,   6.24592E-06,       655.576
C:/ALETube/PressureUpdate/LargeStep/DeformErode/JobErode.odb,Step-1,Increment      9: Step Time =,    90.00,"TUBE-1",          3777,   7.07107E-03,   7.07107E-03,   287.500E-03,NA,NA,"",   10.0063E-03,            0.,   288.782E-03,   6.26215E-06,       657.352
C:/ALETube/PressureUpdate/LargeStep/DeformErode/JobErode.odb,Step-1,Increment      9: Step Time =,    90.00,"TUBE-1",          3975,   5.87785E-03,   8.09017E-03,   300.000E-03,NA,NA,"",   10.0065E-03,            0.,   301.280E-03,   6.51995E-06,       684.324
C:/ALETube/PressureUpdate/LargeStep/DeformErode/JobErode.odb,Step-1,Increment      9: Step Time =,    90.00,"TUBE-1",          3941,   7.07107E-03,   7.07107E-03,   300.000E-03,NA,NA,"",   10.0065E-03,            0.,   301.280E-03,   6.53688E-06,       686.178
C:/ALETube/PressureUpdate/LargeStep/DeformErode/JobErode.odb,Step-1,Increment      9: Step Time =,    90.00,"TUBE-1",          4105,   7.07107E-03,   7.07107E-03,     312.5E-03,NA,NA,"",   10.0068E-03,            0.,   313.777E-03,   6.81158E-06,       715.000
C:/ALETube/PressureUpdate/LargeStep/DeformErode/JobErode.odb,Step-1,Increment      9: Step Time =,    90.00,"TUBE-1",          4139,   5.87785E-03,   8.09017E-03,     312.5E-03,NA,NA,"",   10.0068E-03,   867.362E-21,   313.777E-03,   6.79395E-06,       713.070
C:/ALETube/PressureUpdate/LargeStep/DeformErode/JobErode.odb,Step-1,Increment      9: Step Time =,    90.00,"TUBE-1",          4303,   5.87785E-03,   8.09017E-03,   325.000E-03,NA,NA,"",   10.0071E-03,            0.,   326.275E-03,   7.06792E-06,       741.811
C:/ALETube/PressureUpdate/LargeStep/DeformErode/JobErode.odb,Step-1,Increment      9: Step Time =,    90.00,"TUBE-1",          4269,   7.07107E-03,   7.07107E-03,   325.000E-03,NA,NA,"",   10.0071E-03,            0.,   326.275E-03,   7.08626E-06,       743.818
C:/ALETube/PressureUpdate/LargeStep/DeformErode/JobErode.odb,Step-1,Increment      9: Step Time =,    90.00,"TUBE-1",          4467,   5.87785E-03,   8.09017E-03,   337.500E-03,NA,NA,"",   10.0073E-03,            0.,   338.772E-03,   7.34187E-06,       770.549
C:/ALETube/PressureUpdate/LargeStep/DeformErode/JobErode.odb,Step-1,Increment      9: Step Time =,    90.00,"TUBE-1",          4433,   7.07107E-03,   7.07107E-03,   337.500E-03,NA,NA,"",   10.0074E-03,            0.,   338.772E-03,   7.36092E-06,       772.633
C:/ALETube/PressureUpdate/LargeStep/DeformErode/JobErode.odb,Step-1,Increment      9: Step Time =,    90.00,"TUBE-1",          4631,   5.87785E-03,   8.09017E-03,   350.000E-03,NA,NA,"",   10.0076E-03,            0.,   351.269E-03,   7.61580E-06,       799.283
C:/ALETube/PressureUpdate/LargeStep/DeformErode/JobErode.odb,Step-1,Increment      9: Step Time =,    90.00,"TUBE-1",          4597,   7.07107E-03,   7.07107E-03,   350.000E-03,NA,NA,"",   10.0076E-03,            0.,   351.269E-03,   7.63554E-06,       801.444
C:/ALETube/PressureUpdate/LargeStep/DeformErode/JobErode.odb,Step-1,Increment      9: Step Time =,    90.00,"TUBE-1",          4795,   5.87785E-03,   8.09017E-03,   362.500E-03,NA,NA,"",   10.0079E-03,            0.,   363.766E-03,   7.88969E-06,       828.013
C:/ALETube/PressureUpdate/LargeStep/DeformErode/JobErode.odb,Step-1,Increment      9: Step Time =,    90.00,"TUBE-1",          4761,   7.07107E-03,   7.07107E-03,   362.500E-03,NA,NA,"",   10.0079E-03,            0.,   363.766E-03,   7.91015E-06,       830.251
C:/ALETube/PressureUpdate/LargeStep/DeformErode/JobErode.odb,Step-1,Increment      9: Step Time =,    90.00,"TUBE-1",          4925,   7.07107E-03,   7.07107E-03,      375.E-03,NA,NA,"",   10.0082E-03,            0.,   376.263E-03,   8.18472E-06,       859.055
C:/ALETube/PressureUpdate/LargeStep/DeformErode/JobErode.odb,Step-1,Increment      9: Step Time =,    90.00,"TUBE-1",          4959,   5.87785E-03,   8.09017E-03,      375.E-03,NA,NA,"",   10.0082E-03,            0.,   376.263E-03,   8.16357E-06,       856.740
C:/ALETube/PressureUpdate/LargeStep/DeformErode/JobErode.odb,Step-1,Increment      9: Step Time =,    90.00,"TUBE-1",          5123,   5.87785E-03,   8.09017E-03,   387.500E-03,NA,NA,"",   10.0084E-03,  -867.362E-21,   388.760E-03,   8.43742E-06,       885.463
C:/ALETube/PressureUpdate/LargeStep/DeformErode/JobErode.odb,Step-1,Increment      9: Step Time =,    90.00,"TUBE-1",          5089,   7.07107E-03,   7.07107E-03,   387.500E-03,NA,NA,"",   10.0085E-03,            0.,   388.760E-03,   8.45927E-06,       887.855
C:/ALETube/PressureUpdate/LargeStep/DeformErode/JobErode.odb,Step-1,Increment      9: Step Time =,    90.00,"TUBE-1",          5287,   5.87785E-03,   8.09017E-03,   400.000E-03,NA,NA,"",   10.0087E-03,            0.,   401.257E-03,   8.71124E-06,       914.182
C:/ALETube/PressureUpdate/LargeStep/DeformErode/JobErode.odb,Step-1,Increment      9: Step Time =,    90.00,"TUBE-1",          5253,   7.07107E-03,   7.07107E-03,   400.000E-03,NA,NA,"",   10.0087E-03,            0.,   401.257E-03,   8.73380E-06,       916.651
C:/ALETube/PressureUpdate/LargeStep/DeformErode/JobErode.odb,Step-1,Increment      9: Step Time =,    90.00,"TUBE-1",          5451,   5.87785E-03,   8.09017E-03,   412.500E-03,NA,NA,"",   10.0090E-03,  -867.362E-21,   413.753E-03,   8.98504E-06,       942.898
C:/ALETube/PressureUpdate/LargeStep/DeformErode/JobErode.odb,Step-1,Increment      9: Step Time =,    90.00,"TUBE-1",          5417,   7.07107E-03,   7.07107E-03,   412.500E-03,NA,NA,"",   10.0090E-03,            0.,   413.753E-03,   9.00830E-06,       945.444
C:/ALETube/PressureUpdate/LargeStep/DeformErode/JobErode.odb,Step-1,Increment      9: Step Time =,    90.00,"TUBE-1",          5615,   5.87785E-03,   8.09017E-03,   425.000E-03,NA,NA,"",   10.0093E-03,            0.,   426.250E-03,   9.25881E-06,       971.610
C:/ALETube/PressureUpdate/LargeStep/DeformErode/JobErode.odb,Step-1,Increment      9: Step Time =,    90.00,"TUBE-1",          5581,   7.07107E-03,   7.07107E-03,   425.000E-03,NA,NA,"",   10.0093E-03,            0.,   426.250E-03,   9.28277E-06,       974.233
C:/ALETube/PressureUpdate/LargeStep/DeformErode/JobErode.odb,Step-1,Increment      9: Step Time =,    90.00,"TUBE-1",          5745,   7.07107E-03,   7.07107E-03,     437.5E-03,NA,NA,"",   10.0096E-03,            0.,   438.746E-03,   9.55722E-06,   1.00302E+03
C:/ALETube/PressureUpdate/LargeStep/DeformErode/JobErode.odb,Step-1,Increment      9: Step Time =,    90.00,"TUBE-1",          5779,   5.87785E-03,   8.09017E-03,     437.5E-03,NA,NA,"",   10.0095E-03,  -867.362E-21,   438.746E-03,   9.53255E-06,   1.00032E+03
C:/ALETube/PressureUpdate/LargeStep/DeformErode/JobErode.odb,Step-1,Increment      9: Step Time =,    90.00,"TUBE-1",          5943,   5.87785E-03,   8.09017E-03,   450.000E-03,NA,NA,"",   10.0098E-03,  -867.362E-21,   451.243E-03,   9.80628E-06,   1.02902E+03
C:/ALETube/PressureUpdate/LargeStep/DeformErode/JobErode.odb,Step-1,Increment      9: Step Time =,    90.00,"TUBE-1",          5909,   7.07107E-03,   7.07107E-03,   450.000E-03,NA,NA,"",   10.0098E-03,            0.,   451.243E-03,   9.83165E-06,   1.03180E+03
C:/ALETube/PressureUpdate/LargeStep/DeformErode/JobErode.odb,Step-1,Increment      9: Step Time =,    90.00,"TUBE-1",          6107,   5.87785E-03,   8.09017E-03,   462.500E-03,NA,NA,"",   10.0101E-03,            0.,   463.739E-03,   10.0800E-06,   1.05772E+03
C:/ALETube/PressureUpdate/LargeStep/DeformErode/JobErode.odb,Step-1,Increment      9: Step Time =,    90.00,"TUBE-1",          6073,   7.07107E-03,   7.07107E-03,   462.500E-03,NA,NA,"",   10.0101E-03,            0.,   463.739E-03,   10.1060E-06,   1.06058E+03
C:/ALETube/PressureUpdate/LargeStep/DeformErode/JobErode.odb,Step-1,Increment      9: Step Time =,    90.00,"TUBE-1",          6271,   5.87785E-03,   8.09017E-03,   475.000E-03,NA,NA,"",   10.0104E-03,  -867.362E-21,   476.235E-03,   10.3536E-06,   1.08642E+03
C:/ALETube/PressureUpdate/LargeStep/DeformErode/JobErode.odb,Step-1,Increment      9: Step Time =,    90.00,"TUBE-1",          6237,   7.07107E-03,   7.07107E-03,   475.000E-03,NA,NA,"",   10.0104E-03,            0.,   476.235E-03,   10.3804E-06,   1.08935E+03
C:/ALETube/PressureUpdate/LargeStep/DeformErode/JobErode.odb,Step-1,Increment      9: Step Time =,    90.00,"TUBE-1",          6435,   5.87785E-03,   8.09017E-03,   487.500E-03,NA,NA,"",   10.0106E-03,            0.,   488.731E-03,   10.6273E-06,   1.11511E+03
C:/ALETube/PressureUpdate/LargeStep/DeformErode/JobErode.odb,Step-1,Increment      9: Step Time =,    90.00,"TUBE-1",          6401,   7.07107E-03,   7.07107E-03,   487.500E-03,NA,NA,"",   10.0107E-03,            0.,   488.731E-03,   10.6548E-06,   1.11812E+03
C:/ALETube/PressureUpdate/LargeStep/DeformErode/JobErode.odb,Step-1,Increment      9: Step Time =,    90.00,"TUBE-1",          6565,   7.07107E-03,   7.07107E-03,      500.E-03,NA,NA,"",   10.0109E-03,            0.,   501.227E-03,   10.9291E-06,   1.14689E+03
C:/ALETube/PressureUpdate/LargeStep/DeformErode/JobErode.odb,Step-1,Increment      9: Step Time =,    90.00,"TUBE-1",          6599,   5.87785E-03,   8.09017E-03,      500.E-03,NA,NA,"",   10.0109E-03,            0.,   501.227E-03,   10.9009E-06,   1.14380E+03
C:/ALETube/PressureUpdate/LargeStep/DeformErode/JobErode.odb,Step-1,Increment      9: Step Time =,    90.00,"TUBE-1",          6763,   5.87785E-03,   8.09017E-03,   512.500E-03,NA,NA,"",   10.0112E-03,            0.,   513.723E-03,   11.1745E-06,   1.17249E+03
C:/ALETube/PressureUpdate/LargeStep/DeformErode/JobErode.odb,Step-1,Increment      9: Step Time =,    90.00,"TUBE-1",          6729,   7.07107E-03,   7.07107E-03,   512.500E-03,NA,NA,"",   10.0112E-03,            0.,   513.723E-03,   11.2034E-06,   1.17565E+03
C:/ALETube/PressureUpdate/LargeStep/DeformErode/JobErode.odb,Step-1,Increment      9: Step Time =,    90.00,"TUBE-1",          6927,   5.87785E-03,   8.09017E-03,   525.000E-03,NA,NA,"",   10.0114E-03,   867.362E-21,   526.219E-03,   11.4481E-06,   1.20117E+03
C:/ALETube/PressureUpdate/LargeStep/DeformErode/JobErode.odb,Step-1,Increment      9: Step Time =,    90.00,"TUBE-1",          6893,   7.07107E-03,   7.07107E-03,   525.000E-03,NA,NA,"",   10.0115E-03,            0.,   526.219E-03,   11.4777E-06,   1.20441E+03
C:/ALETube/PressureUpdate/LargeStep/DeformErode/JobErode.odb,Step-1,Increment      9: Step Time =,    90.00,"TUBE-1",          7091,   5.87785E-03,   8.09017E-03,   537.500E-03,NA,NA,"",   10.0117E-03,            0.,   538.714E-03,   11.7216E-06,   1.22985E+03
C:/ALETube/PressureUpdate/LargeStep/DeformErode/JobErode.odb,Step-1,Increment      9: Step Time =,    90.00,"TUBE-1",          7057,   7.07107E-03,   7.07107E-03,   537.500E-03,NA,NA,"",   10.0118E-03,            0.,   538.714E-03,   11.7519E-06,   1.23317E+03
C:/ALETube/PressureUpdate/LargeStep/DeformErode/JobErode.odb,Step-1,Increment      9: Step Time =,    90.00,"TUBE-1",          7255,   5.87785E-03,   8.09017E-03,   550.000E-03,NA,NA,"",   10.0120E-03,            0.,   551.210E-03,   11.9951E-06,   1.25853E+03
C:/ALETube/PressureUpdate/LargeStep/DeformErode/JobErode.odb,Step-1,Increment      9: Step Time =,    90.00,"TUBE-1",          7221,   7.07107E-03,   7.07107E-03,   550.000E-03,NA,NA,"",   10.0120E-03,            0.,   551.210E-03,   12.0261E-06,   1.26192E+03
C:/ALETube/PressureUpdate/LargeStep/DeformErode/JobErode.odb,Step-1,Increment      9: Step Time =,    90.00,"TUBE-1",          7385,   7.07107E-03,   7.07107E-03,     562.5E-03,NA,NA,"",   10.0123E-03,            0.,   563.705E-03,   12.3003E-06,   1.29067E+03
C:/ALETube/PressureUpdate/LargeStep/DeformErode/JobErode.odb,Step-1,Increment      9: Step Time =,    90.00,"TUBE-1",          7419,   5.87785E-03,   8.09017E-03,     562.5E-03,NA,NA,"",   10.0123E-03,            0.,   563.705E-03,   12.2686E-06,   1.28720E+03
C:/ALETube/PressureUpdate/LargeStep/DeformErode/JobErode.odb,Step-1,Increment      9: Step Time =,    90.00,"TUBE-1",          7583,   5.87785E-03,   8.09017E-03,   575.000E-03,NA,NA,"",   10.0125E-03,            0.,   576.200E-03,   12.5421E-06,   1.31587E+03
C:/ALETube/PressureUpdate/LargeStep/DeformErode/JobErode.odb,Step-1,Increment      9: Step Time =,    90.00,"TUBE-1",          7549,   7.07107E-03,   7.07107E-03,   575.000E-03,NA,NA,"",   10.0126E-03,            0.,   576.200E-03,   12.5745E-06,   1.31941E+03
C:/ALETube/PressureUpdate/LargeStep/DeformErode/JobErode.odb,Step-1,Increment      9: Step Time =,    90.00,"TUBE-1",          7747,   5.87785E-03,   8.09017E-03,   587.500E-03,NA,NA,"",   10.0128E-03,  -867.362E-21,   588.696E-03,   12.8156E-06,   1.34453E+03
C:/ALETube/PressureUpdate/LargeStep/DeformErode/JobErode.odb,Step-1,Increment      9: Step Time =,    90.00,"TUBE-1",          7713,   7.07107E-03,   7.07107E-03,   587.500E-03,NA,NA,"",   10.0128E-03,            0.,   588.696E-03,   12.8486E-06,   1.34815E+03
C:/ALETube/PressureUpdate/LargeStep/DeformErode/JobErode.odb,Step-1,Increment      9: Step Time =,    90.00,"TUBE-1",          7911,   5.87785E-03,   8.09017E-03,   600.000E-03,NA,NA,"",   10.0131E-03,            0.,   601.191E-03,   13.0890E-06,   1.37319E+03
C:/ALETube/PressureUpdate/LargeStep/DeformErode/JobErode.odb,Step-1,Increment      9: Step Time =,    90.00,"TUBE-1",          7877,   7.07107E-03,   7.07107E-03,   600.000E-03,NA,NA,"",   10.0131E-03,            0.,   601.191E-03,   13.1227E-06,   1.37689E+03
C:/ALETube/PressureUpdate/LargeStep/DeformErode/JobErode.odb,Step-1,Increment      9: Step Time =,    90.00,"TUBE-1",          8075,   5.87785E-03,   8.09017E-03,   612.500E-03,NA,NA,"",   10.0134E-03,            0.,   613.686E-03,   13.3624E-06,   1.40185E+03
C:/ALETube/PressureUpdate/LargeStep/DeformErode/JobErode.odb,Step-1,Increment      9: Step Time =,    90.00,"TUBE-1",          8041,   7.07107E-03,   7.07107E-03,   612.500E-03,NA,NA,"",   10.0134E-03,            0.,   613.686E-03,   13.3968E-06,   1.40562E+03
C:/ALETube/PressureUpdate/LargeStep/DeformErode/JobErode.odb,Step-1,Increment      9: Step Time =,    90.00,"TUBE-1",          8205,   7.07107E-03,   7.07107E-03,      625.E-03,NA,NA,"",   10.0137E-03,            0.,   626.181E-03,   13.6709E-06,   1.43435E+03
C:/ALETube/PressureUpdate/LargeStep/DeformErode/JobErode.odb,Step-1,Increment      9: Step Time =,    90.00,"TUBE-1",          8239,   5.87785E-03,   8.09017E-03,      625.E-03,NA,NA,"",   10.0136E-03,            0.,   626.181E-03,   13.6357E-06,   1.43050E+03
C:/ALETube/PressureUpdate/LargeStep/DeformErode/JobErode.odb,Step-1,Increment      9: Step Time =,    90.00,"TUBE-1",          8403,   5.87785E-03,   8.09017E-03,   637.500E-03,NA,NA,"",   10.0139E-03,            0.,   638.675E-03,   13.9091E-06,   1.45915E+03
C:/ALETube/PressureUpdate/LargeStep/DeformErode/JobErode.odb,Step-1,Increment      9: Step Time =,    90.00,"TUBE-1",          8369,   7.07107E-03,   7.07107E-03,   637.500E-03,NA,NA,"",   10.0139E-03,            0.,   638.675E-03,   13.9450E-06,   1.46308E+03
C:/ALETube/PressureUpdate/LargeStep/DeformErode/JobErode.odb,Step-1,Increment      9: Step Time =,    90.00,"TUBE-1",          8567,   5.87785E-03,   8.09017E-03,   650.000E-03,NA,NA,"",   10.0142E-03,   867.362E-21,   651.170E-03,   14.1824E-06,   1.48780E+03
C:/ALETube/PressureUpdate/LargeStep/DeformErode/JobErode.odb,Step-1,Increment      9: Step Time =,    90.00,"TUBE-1",          8533,   7.07107E-03,   7.07107E-03,   650.000E-03,NA,NA,"",   10.0142E-03,            0.,   651.170E-03,   14.2190E-06,   1.49180E+03
C:/ALETube/PressureUpdate/LargeStep/DeformErode/JobErode.odb,Step-1,Increment      9: Step Time =,    90.00,"TUBE-1",          8731,   5.87785E-03,   8.09017E-03,   662.500E-03,NA,NA,"",   10.0145E-03,            0.,   663.665E-03,   14.4557E-06,   1.51644E+03
C:/ALETube/PressureUpdate/LargeStep/DeformErode/JobErode.odb,Step-1,Increment      9: Step Time =,    90.00,"TUBE-1",          8697,   7.07107E-03,   7.07107E-03,   662.500E-03,NA,NA,"",   10.0145E-03,            0.,   663.665E-03,   14.4930E-06,   1.52052E+03
C:/ALETube/PressureUpdate/LargeStep/DeformErode/JobErode.odb,Step-1,Increment      9: Step Time =,    90.00,"TUBE-1",          8895,   5.87785E-03,   8.09017E-03,   675.000E-03,NA,NA,"",   10.0147E-03,            0.,   676.159E-03,   14.7290E-06,   1.54508E+03
C:/ALETube/PressureUpdate/LargeStep/DeformErode/JobErode.odb,Step-1,Increment      9: Step Time =,    90.00,"TUBE-1",          8861,   7.07107E-03,   7.07107E-03,   675.000E-03,NA,NA,"",   10.0148E-03,            0.,   676.159E-03,   14.7669E-06,   1.54923E+03
C:/ALETube/PressureUpdate/LargeStep/DeformErode/JobErode.odb,Step-1,Increment      9: Step Time =,    90.00,"TUBE-1",          9025,   7.07107E-03,   7.07107E-03,     687.5E-03,NA,NA,"",   10.0150E-03,            0.,   688.654E-03,   15.0409E-06,   1.57794E+03
C:/ALETube/PressureUpdate/LargeStep/DeformErode/JobErode.odb,Step-1,Increment      9: Step Time =,    90.00,"TUBE-1",          9059,   5.87785E-03,   8.09017E-03,     687.5E-03,NA,NA,"",   10.0150E-03,            0.,   688.654E-03,   15.0022E-06,   1.57371E+03
C:/ALETube/PressureUpdate/LargeStep/DeformErode/JobErode.odb,Step-1,Increment      9: Step Time =,    90.00,"TUBE-1",          9223,   5.87785E-03,   8.09017E-03,   700.000E-03,NA,NA,"",   10.0153E-03,            0.,   701.148E-03,   15.2754E-06,   1.60235E+03
C:/ALETube/PressureUpdate/LargeStep/DeformErode/JobErode.odb,Step-1,Increment      9: Step Time =,    90.00,"TUBE-1",          9189,   7.07107E-03,   7.07107E-03,   700.000E-03,NA,NA,"",   10.0153E-03,            0.,   701.148E-03,   15.3148E-06,   1.60665E+03
C:/ALETube/PressureUpdate/LargeStep/DeformErode/JobErode.odb,Step-1,Increment      9: Step Time =,    90.00,"TUBE-1",          9387,   5.87785E-03,   8.09017E-03,   712.500E-03,NA,NA,"",   10.0155E-03,  -1.73472E-18,   713.642E-03,   15.5486E-06,   1.63097E+03
C:/ALETube/PressureUpdate/LargeStep/DeformErode/JobErode.odb,Step-1,Increment      9: Step Time =,    90.00,"TUBE-1",          9353,   7.07107E-03,   7.07107E-03,   712.500E-03,NA,NA,"",   10.0156E-03,            0.,   713.642E-03,   15.5887E-06,   1.63536E+03
C:/ALETube/PressureUpdate/LargeStep/DeformErode/JobErode.odb,Step-1,Increment      9: Step Time =,    90.00,"TUBE-1",          9551,   5.87785E-03,   8.09017E-03,   725.000E-03,NA,NA,"",   10.0158E-03,   867.362E-21,   726.136E-03,   15.8218E-06,   1.65960E+03
C:/ALETube/PressureUpdate/LargeStep/DeformErode/JobErode.odb,Step-1,Increment      9: Step Time =,    90.00,"TUBE-1",          9517,   7.07107E-03,   7.07107E-03,   725.000E-03,NA,NA,"",   10.0159E-03,            0.,   726.136E-03,   15.8625E-06,   1.66406E+03
C:/ALETube/PressureUpdate/LargeStep/DeformErode/JobErode.odb,Step-1,Increment      9: Step Time =,    90.00,"TUBE-1",          9715,   5.87785E-03,   8.09017E-03,   737.500E-03,NA,NA,"",   10.0161E-03,  -867.362E-21,   738.630E-03,   16.0949E-06,   1.68822E+03
C:/ALETube/PressureUpdate/LargeStep/DeformErode/JobErode.odb,Step-1,Increment      9: Step Time =,    90.00,"TUBE-1",          9681,   7.07107E-03,   7.07107E-03,   737.500E-03,NA,NA,"",   10.0161E-03,            0.,   738.630E-03,   16.1364E-06,   1.69275E+03
C:/ALETube/PressureUpdate/LargeStep/DeformErode/JobErode.odb,Step-1,Increment      9: Step Time =,    90.00,"TUBE-1",          9845,   7.07107E-03,   7.07107E-03,      750.E-03,NA,NA,"",   10.0164E-03,            0.,   751.124E-03,   16.4102E-06,   1.72145E+03
C:/ALETube/PressureUpdate/LargeStep/DeformErode/JobErode.odb,Step-1,Increment      9: Step Time =,    90.00,"TUBE-1",          9879,   5.87785E-03,   8.09017E-03,      750.E-03,NA,NA,"",   10.0164E-03,            0.,   751.124E-03,   16.3681E-06,   1.71683E+03
C:/ALETube/PressureUpdate/LargeStep/DeformErode/JobErode.odb,Step-1,Increment      9: Step Time =,    90.00,"TUBE-1",         10043,   5.87785E-03,   8.09017E-03,   762.500E-03,NA,NA,"",   10.0166E-03,            0.,   763.618E-03,   16.6411E-06,   1.74545E+03
C:/ALETube/PressureUpdate/LargeStep/DeformErode/JobErode.odb,Step-1,Increment      9: Step Time =,    90.00,"TUBE-1",         10009,   7.07107E-03,   7.07107E-03,   762.500E-03,NA,NA,"",   10.0167E-03,            0.,   763.618E-03,   16.6840E-06,   1.75014E+03
C:/ALETube/PressureUpdate/LargeStep/DeformErode/JobErode.odb,Step-1,Increment      9: Step Time =,    90.00,"TUBE-1",         10207,   5.87785E-03,   8.09017E-03,   775.000E-03,NA,NA,"",   10.0169E-03,            0.,   776.111E-03,   16.9142E-06,   1.77406E+03
C:/ALETube/PressureUpdate/LargeStep/DeformErode/JobErode.odb,Step-1,Increment      9: Step Time =,    90.00,"TUBE-1",         10173,   7.07107E-03,   7.07107E-03,   775.000E-03,NA,NA,"",   10.0170E-03,            0.,   776.111E-03,   16.9578E-06,   1.77882E+03
C:/ALETube/PressureUpdate/LargeStep/DeformErode/JobErode.odb,Step-1,Increment      9: Step Time =,    90.00,"TUBE-1",         10371,   5.87785E-03,   8.09017E-03,   787.500E-03,NA,NA,"",   10.0172E-03,            0.,   788.605E-03,   17.1873E-06,   1.80266E+03
C:/ALETube/PressureUpdate/LargeStep/DeformErode/JobErode.odb,Step-1,Increment      9: Step Time =,    90.00,"TUBE-1",         10337,   7.07107E-03,   7.07107E-03,   787.500E-03,NA,NA,"",   10.0172E-03,            0.,   788.605E-03,   17.2315E-06,   1.80750E+03
C:/ALETube/PressureUpdate/LargeStep/DeformErode/JobErode.odb,Step-1,Increment      9: Step Time =,    90.00,"TUBE-1",         10535,   5.87785E-03,   8.09017E-03,   800.000E-03,NA,NA,"",   10.0175E-03,            0.,   801.099E-03,   17.4603E-06,   1.83127E+03
C:/ALETube/PressureUpdate/LargeStep/DeformErode/JobErode.odb,Step-1,Increment      9: Step Time =,    90.00,"TUBE-1",         10501,   7.07107E-03,   7.07107E-03,   800.000E-03,NA,NA,"",   10.0175E-03,            0.,   801.099E-03,   17.5052E-06,   1.83618E+03
C:/ALETube/PressureUpdate/LargeStep/DeformErode/JobErode.odb,Step-1,Increment      9: Step Time =,    90.00,"TUBE-1",         10665,   7.07107E-03,   7.07107E-03,     812.5E-03,NA,NA,"",   10.0178E-03,            0.,   813.592E-03,   17.7789E-06,   1.86486E+03
C:/ALETube/PressureUpdate/LargeStep/DeformErode/JobErode.odb,Step-1,Increment      9: Step Time =,    90.00,"TUBE-1",         10699,   5.87785E-03,   8.09017E-03,     812.5E-03,NA,NA,"",   10.0177E-03,  -867.362E-21,   813.592E-03,   17.7333E-06,   1.85986E+03
C:/ALETube/PressureUpdate/LargeStep/DeformErode/JobErode.odb,Step-1,Increment      9: Step Time =,    90.00,"TUBE-1",         10863,   5.87785E-03,   8.09017E-03,   825.000E-03,NA,NA,"",   10.0180E-03,            0.,   826.085E-03,   18.0062E-06,   1.88846E+03
C:/ALETube/PressureUpdate/LargeStep/DeformErode/JobErode.odb,Step-1,Increment      9: Step Time =,    90.00,"TUBE-1",         10829,   7.07107E-03,   7.07107E-03,   825.000E-03,NA,NA,"",   10.0181E-03,            0.,   826.085E-03,   18.0526E-06,   1.89353E+03
C:/ALETube/PressureUpdate/LargeStep/DeformErode/JobErode.odb,Step-1,Increment      9: Step Time =,    90.00,"TUBE-1",         11027,   5.87785E-03,   8.09017E-03,   837.500E-03,NA,NA,"",   10.0183E-03,            0.,   838.578E-03,   18.2792E-06,   1.91705E+03
C:/ALETube/PressureUpdate/LargeStep/DeformErode/JobErode.odb,Step-1,Increment      9: Step Time =,    90.00,"TUBE-1",         10993,   7.07107E-03,   7.07107E-03,   837.500E-03,NA,NA,"",   10.0183E-03,            0.,   838.578E-03,   18.3262E-06,   1.92219E+03
C:/ALETube/PressureUpdate/LargeStep/DeformErode/JobErode.odb,Step-1,Increment      9: Step Time =,    90.00,"TUBE-1",         11191,   5.87785E-03,   8.09017E-03,   850.000E-03,NA,NA,"",   10.0186E-03,            0.,   851.071E-03,   18.5521E-06,   1.94564E+03
C:/ALETube/PressureUpdate/LargeStep/DeformErode/JobErode.odb,Step-1,Increment      9: Step Time =,    90.00,"TUBE-1",         11157,   7.07107E-03,   7.07107E-03,   850.000E-03,NA,NA,"",   10.0186E-03,            0.,   851.071E-03,   18.5998E-06,   1.95086E+03
C:/ALETube/PressureUpdate/LargeStep/DeformErode/JobErode.odb,Step-1,Increment      9: Step Time =,    90.00,"TUBE-1",         11355,   5.87785E-03,   8.09017E-03,   862.500E-03,NA,NA,"",   10.0188E-03,  -867.362E-21,   863.564E-03,   18.8250E-06,   1.97422E+03
C:/ALETube/PressureUpdate/LargeStep/DeformErode/JobErode.odb,Step-1,Increment      9: Step Time =,    90.00,"TUBE-1",         11321,   7.07107E-03,   7.07107E-03,   862.500E-03,NA,NA,"",   10.0189E-03,            0.,   863.564E-03,   18.8734E-06,   1.97952E+03
C:/ALETube/PressureUpdate/LargeStep/DeformErode/JobErode.odb,Step-1,Increment      9: Step Time =,    90.00,"TUBE-1",         11485,   7.07107E-03,   7.07107E-03,      875.E-03,NA,NA,"",   10.0191E-03,            0.,   876.057E-03,   19.1470E-06,   2.00817E+03
C:/ALETube/PressureUpdate/LargeStep/DeformErode/JobErode.odb,Step-1,Increment      9: Step Time =,    90.00,"TUBE-1",         11519,   5.87785E-03,   8.09017E-03,      875.E-03,NA,NA,"",   10.0191E-03,            0.,   876.057E-03,   19.0979E-06,   2.00280E+03
C:/ALETube/PressureUpdate/LargeStep/DeformErode/JobErode.odb,Step-1,Increment      9: Step Time =,    90.00,"TUBE-1",         11683,   5.87785E-03,   8.09017E-03,   887.500E-03,NA,NA,"",   10.0194E-03,            0.,   888.550E-03,   19.3707E-06,   2.03138E+03
C:/ALETube/PressureUpdate/LargeStep/DeformErode/JobErode.odb,Step-1,Increment      9: Step Time =,    90.00,"TUBE-1",         11649,   7.07107E-03,   7.07107E-03,   887.500E-03,NA,NA,"",   10.0194E-03,            0.,   888.550E-03,   19.4205E-06,   2.03683E+03
C:/ALETube/PressureUpdate/LargeStep/DeformErode/JobErode.odb,Step-1,Increment      9: Step Time =,    90.00,"TUBE-1",         11847,   5.87785E-03,   8.09017E-03,   900.000E-03,NA,NA,"",   10.0196E-03,            0.,   901.043E-03,   19.6435E-06,   2.05995E+03
C:/ALETube/PressureUpdate/LargeStep/DeformErode/JobErode.odb,Step-1,Increment      9: Step Time =,    90.00,"TUBE-1",         11813,   7.07107E-03,   7.07107E-03,   900.000E-03,NA,NA,"",   10.0197E-03,            0.,   901.043E-03,   19.6940E-06,   2.06548E+03
C:/ALETube/PressureUpdate/LargeStep/DeformErode/JobErode.odb,Step-1,Increment      9: Step Time =,    90.00,"TUBE-1",         12011,   5.87785E-03,   8.09017E-03,   912.500E-03,NA,NA,"",   10.0199E-03,  -867.362E-21,   913.535E-03,   19.9163E-06,   2.08852E+03
C:/ALETube/PressureUpdate/LargeStep/DeformErode/JobErode.odb,Step-1,Increment      9: Step Time =,    90.00,"TUBE-1",         11977,   7.07107E-03,   7.07107E-03,   912.500E-03,NA,NA,"",   10.0200E-03,            0.,   913.535E-03,   19.9675E-06,   2.09412E+03
C:/ALETube/PressureUpdate/LargeStep/DeformErode/JobErode.odb,Step-1,Increment      9: Step Time =,    90.00,"TUBE-1",         12175,   5.87785E-03,   8.09017E-03,   925.000E-03,NA,NA,"",   10.0202E-03,  -867.362E-21,   926.028E-03,   20.1891E-06,   2.11709E+03
C:/ALETube/PressureUpdate/LargeStep/DeformErode/JobErode.odb,Step-1,Increment      9: Step Time =,    90.00,"TUBE-1",         12141,   7.07107E-03,   7.07107E-03,   925.000E-03,NA,NA,"",   10.0202E-03,            0.,   926.028E-03,   20.2410E-06,   2.12276E+03
C:/ALETube/PressureUpdate/LargeStep/DeformErode/JobErode.odb,Step-1,Increment      9: Step Time =,    90.00,"TUBE-1",         12305,   7.07107E-03,   7.07107E-03,     937.5E-03,NA,NA,"",   10.0205E-03,            0.,   938.520E-03,   20.5144E-06,   2.15140E+03
C:/ALETube/PressureUpdate/LargeStep/DeformErode/JobErode.odb,Step-1,Increment      9: Step Time =,    90.00,"TUBE-1",         12339,   5.87785E-03,   8.09017E-03,     937.5E-03,NA,NA,"",   10.0205E-03,   867.362E-21,   938.520E-03,   20.4619E-06,   2.14565E+03
C:/ALETube/PressureUpdate/LargeStep/DeformErode/JobErode.odb,Step-1,Increment      9: Step Time =,    90.00,"TUBE-1",         12503,   5.87785E-03,   8.09017E-03,   950.000E-03,NA,NA,"",   10.0207E-03,            0.,   951.012E-03,   20.7346E-06,   2.17421E+03
C:/ALETube/PressureUpdate/LargeStep/DeformErode/JobErode.odb,Step-1,Increment      9: Step Time =,    90.00,"TUBE-1",         12469,   7.07107E-03,   7.07107E-03,   950.000E-03,NA,NA,"",   10.0208E-03,            0.,   951.012E-03,   20.7878E-06,   2.18004E+03
C:/ALETube/PressureUpdate/LargeStep/DeformErode/JobErode.odb,Step-1,Increment      9: Step Time =,    90.00,"TUBE-1",         12667,   5.87785E-03,   8.09017E-03,   962.500E-03,NA,NA,"",   10.0210E-03,            0.,   963.504E-03,   21.0073E-06,   2.20276E+03
C:/ALETube/PressureUpdate/LargeStep/DeformErode/JobErode.odb,Step-1,Increment      9: Step Time =,    90.00,"TUBE-1",         12633,   7.07107E-03,   7.07107E-03,   962.500E-03,NA,NA,"",   10.0211E-03,            0.,   963.504E-03,   21.0612E-06,   2.20867E+03
C:/ALETube/PressureUpdate/LargeStep/DeformErode/JobErode.odb,Step-1,Increment      9: Step Time =,    90.00,"TUBE-1",         12831,   5.87785E-03,   8.09017E-03,   975.000E-03,NA,NA,"",   10.0213E-03,  -867.362E-21,   975.996E-03,   21.2799E-06,   2.23132E+03
C:/ALETube/PressureUpdate/LargeStep/DeformErode/JobErode.odb,Step-1,Increment      9: Step Time =,    90.00,"TUBE-1",         12797,   7.07107E-03,   7.07107E-03,   975.000E-03,NA,NA,"",   10.0213E-03,            0.,   975.996E-03,   21.3346E-06,   2.23729E+03
C:/ALETube/PressureUpdate/LargeStep/DeformErode/JobErode.odb,Step-1,Increment      9: Step Time =,    90.00,"TUBE-1",         12995,   5.87785E-03,   8.09017E-03,   987.500E-03,NA,NA,"",   10.0216E-03,   867.362E-21,   988.488E-03,   21.5526E-06,   2.25986E+03
C:/ALETube/PressureUpdate/LargeStep/DeformErode/JobErode.odb,Step-1,Increment      9: Step Time =,    90.00,"TUBE-1",         12961,   7.07107E-03,   7.07107E-03,   987.500E-03,NA,NA,"",   10.0216E-03,            0.,   988.488E-03,   21.6079E-06,   2.26592E+03
C:/ALETube/PressureUpdate/LargeStep/DeformErode/JobErode.odb,Step-1,Increment      9: Step Time =,    90.00,"TUBE-1",         13125,   7.07107E-03,   7.07107E-03,            1.,NA,NA,"",   10.0219E-03,            0.,       1.00098,   21.8812E-06,   2.29454E+03
C:/ALETube/PressureUpdate/LargeStep/DeformErode/JobErode.odb,Step-1,Increment      9: Step Time =,    90.00,"TUBE-1",         13159,   5.87785E-03,   8.09017E-03,            1.,NA,NA,"",   10.0218E-03,            0.,       1.00098,   21.8252E-06,   2.28841E+03
C:/ALETube/PressureUpdate/LargeStep/DeformErode/JobErode.odb,Step-1,Increment      9: Step Time =,    90.00,"TUBE-1",         13323,   5.87785E-03,   8.09017E-03,       1.01250,NA,NA,"",   10.0221E-03,            0.,       1.01347,   22.0978E-06,   2.31695E+03
C:/ALETube/PressureUpdate/LargeStep/DeformErode/JobErode.odb,Step-1,Increment      9: Step Time =,    90.00,"TUBE-1",         13289,   7.07107E-03,   7.07107E-03,       1.01250,NA,NA,"",   10.0222E-03,            0.,       1.01347,   22.1545E-06,   2.32315E+03
C:/ALETube/PressureUpdate/LargeStep/DeformErode/JobErode.odb,Step-1,Increment      9: Step Time =,    90.00,"TUBE-1",         13487,   5.87785E-03,   8.09017E-03,       1.02500,NA,NA,"",   10.0224E-03,   867.362E-21,       1.02596,   22.3704E-06,   2.34548E+03
C:/ALETube/PressureUpdate/LargeStep/DeformErode/JobErode.odb,Step-1,Increment      9: Step Time =,    90.00,"TUBE-1",         13453,   7.07107E-03,   7.07107E-03,       1.02500,NA,NA,"",   10.0224E-03,            0.,       1.02596,   22.4278E-06,   2.35177E+03
C:/ALETube/PressureUpdate/LargeStep/DeformErode/JobErode.odb,Step-1,Increment      9: Step Time =,    90.00,"TUBE-1",         13617,   7.07107E-03,   7.07107E-03,       1.03750,NA,NA,"",   10.0227E-03,            0.,       1.03846,   22.7010E-06,   2.38037E+03
C:/ALETube/PressureUpdate/LargeStep/DeformErode/JobErode.odb,Step-1,Increment      9: Step Time =,    90.00,"TUBE-1",         13651,   5.87785E-03,   8.09017E-03,       1.03750,NA,NA,"",   10.0226E-03,  -867.362E-21,       1.03846,   22.6429E-06,   2.37402E+03
C:/ALETube/PressureUpdate/LargeStep/DeformErode/JobErode.odb,Step-1,Increment      9: Step Time =,    90.00,"TUBE-1",         13815,   5.87785E-03,   8.09017E-03,       1.05000,NA,NA,"",   10.0229E-03,            0.,       1.05095,   22.9154E-06,   2.40255E+03
C:/ALETube/PressureUpdate/LargeStep/DeformErode/JobErode.odb,Step-1,Increment      9: Step Time =,    90.00,"TUBE-1",         13781,   7.07107E-03,   7.07107E-03,       1.05000,NA,NA,"",   10.0230E-03,            0.,       1.05095,   22.9742E-06,   2.40898E+03
C:/ALETube/PressureUpdate/LargeStep/DeformErode/JobErode.odb,Step-1,Increment      9: Step Time =,    90.00,"TUBE-1",         13979,   5.87785E-03,   8.09017E-03,        1.0625,NA,NA,"",   10.0232E-03,            0.,       1.06344,   23.1879E-06,   2.43107E+03
C:/ALETube/PressureUpdate/LargeStep/DeformErode/JobErode.odb,Step-1,Increment      9: Step Time =,    90.00,"TUBE-1",         13945,   7.07107E-03,   7.07107E-03,        1.0625,NA,NA,"",   10.0232E-03,            0.,       1.06344,   23.2474E-06,   2.43758E+03
C:/ALETube/PressureUpdate/LargeStep/DeformErode/JobErode.odb,Step-1,Increment      9: Step Time =,    90.00,"TUBE-1",         14109,   7.07107E-03,   7.07107E-03,       1.07500,NA,NA,"",   10.0235E-03,            0.,       1.07593,   23.5206E-06,   2.46618E+03
C:/ALETube/PressureUpdate/LargeStep/DeformErode/JobErode.odb,Step-1,Increment      9: Step Time =,    90.00,"TUBE-1",         14143,   5.87785E-03,   8.09017E-03,       1.07500,NA,NA,"",   10.0235E-03,            0.,       1.07593,   23.4604E-06,   2.45960E+03
C:/ALETube/PressureUpdate/LargeStep/DeformErode/JobErode.odb,Step-1,Increment      9: Step Time =,    90.00,"TUBE-1",         14307,   5.87785E-03,   8.09017E-03,       1.08750,NA,NA,"",   10.0237E-03,            0.,       1.08842,   23.7329E-06,   2.48811E+03
C:/ALETube/PressureUpdate/LargeStep/DeformErode/JobErode.odb,Step-1,Increment      9: Step Time =,    90.00,"TUBE-1",         14273,   7.07107E-03,   7.07107E-03,       1.08750,NA,NA,"",   10.0238E-03,            0.,       1.08842,   23.7937E-06,   2.49477E+03
C:/ALETube/PressureUpdate/LargeStep/DeformErode/JobErode.odb,Step-1,Increment      9: Step Time =,    90.00,"TUBE-1",         14471,   5.87785E-03,   8.09017E-03,       1.10000,NA,NA,"",   10.0240E-03,   867.362E-21,       1.10091,   24.0053E-06,   2.51663E+03
C:/ALETube/PressureUpdate/LargeStep/DeformErode/JobErode.odb,Step-1,Increment      9: Step Time =,    90.00,"TUBE-1",         14437,   7.07107E-03,   7.07107E-03,       1.10000,NA,NA,"",   10.0241E-03,            0.,       1.10091,   24.0668E-06,   2.52336E+03
C:/ALETube/PressureUpdate/LargeStep/DeformErode/JobErode.odb,Step-1,Increment      9: Step Time =,    90.00,"TUBE-1",         14635,   5.87785E-03,   8.09017E-03,       1.11250,NA,NA,"",   10.0243E-03,            0.,       1.11340,   24.2777E-06,   2.54514E+03
C:/ALETube/PressureUpdate/LargeStep/DeformErode/JobErode.odb,Step-1,Increment      9: Step Time =,    90.00,"TUBE-1",         14601,   7.07107E-03,   7.07107E-03,       1.11250,NA,NA,"",   10.0243E-03,            0.,       1.11340,   24.3399E-06,   2.55195E+03
C:/ALETube/PressureUpdate/LargeStep/DeformErode/JobErode.odb,Step-1,Increment      9: Step Time =,    90.00,"TUBE-1",         14799,   5.87785E-03,   8.09017E-03,         1.125,NA,NA,"",   10.0246E-03,            0.,       1.12589,   24.5501E-06,   2.57365E+03
C:/ALETube/PressureUpdate/LargeStep/DeformErode/JobErode.odb,Step-1,Increment      9: Step Time =,    90.00,"TUBE-1",         14765,   7.07107E-03,   7.07107E-03,         1.125,NA,NA,"",   10.0246E-03,            0.,       1.12589,   24.6130E-06,   2.58053E+03
C:/ALETube/PressureUpdate/LargeStep/DeformErode/JobErode.odb,Step-1,Increment      9: Step Time =,    90.00,"TUBE-1",         14929,   7.07107E-03,   7.07107E-03,       1.13750,NA,NA,"",   10.0249E-03,            0.,       1.13838,   24.8860E-06,   2.60911E+03
C:/ALETube/PressureUpdate/LargeStep/DeformErode/JobErode.odb,Step-1,Increment      9: Step Time =,    90.00,"TUBE-1",         14963,   5.87785E-03,   8.09017E-03,       1.13750,NA,NA,"",   10.0248E-03,  -867.362E-21,       1.13838,   24.8224E-06,   2.60215E+03
C:/ALETube/PressureUpdate/LargeStep/DeformErode/JobErode.odb,Step-1,Increment      9: Step Time =,    90.00,"TUBE-1",         15127,   5.87785E-03,   8.09017E-03,       1.15000,NA,NA,"",   10.0251E-03,            0.,       1.15087,   25.0947E-06,   2.63065E+03
C:/ALETube/PressureUpdate/LargeStep/DeformErode/JobErode.odb,Step-1,Increment      9: Step Time =,    90.00,"TUBE-1",         15093,   7.07107E-03,   7.07107E-03,       1.15000,NA,NA,"",   10.0252E-03,            0.,       1.15087,   25.1590E-06,   2.63769E+03
C:/ALETube/PressureUpdate/LargeStep/DeformErode/JobErode.odb,Step-1,Increment      9: Step Time =,    90.00,"TUBE-1",         15291,   5.87785E-03,   8.09017E-03,       1.16250,NA,NA,"",   10.0254E-03,   867.362E-21,       1.16336,   25.3670E-06,   2.65915E+03
C:/ALETube/PressureUpdate/LargeStep/DeformErode/JobErode.odb,Step-1,Increment      9: Step Time =,    90.00,"TUBE-1",         15257,   7.07107E-03,   7.07107E-03,       1.16250,NA,NA,"",   10.0254E-03,            0.,       1.16336,   25.4320E-06,   2.66626E+03
C:/ALETube/PressureUpdate/LargeStep/DeformErode/JobErode.odb,Step-1,Increment      9: Step Time =,    90.00,"TUBE-1",         15455,   5.87785E-03,   8.09017E-03,       1.17500,NA,NA,"",   10.0256E-03,            0.,       1.17586,   25.6393E-06,   2.68765E+03
C:/ALETube/PressureUpdate/LargeStep/DeformErode/JobErode.odb,Step-1,Increment      9: Step Time =,    90.00,"TUBE-1",         15421,   7.07107E-03,   7.07107E-03,       1.17500,NA,NA,"",   10.0257E-03,            0.,       1.17586,   25.7050E-06,   2.69483E+03
C:/ALETube/PressureUpdate/LargeStep/DeformErode/JobErode.odb,Step-1,Increment      9: Step Time =,    90.00,"TUBE-1",         15619,   5.87785E-03,   8.09017E-03,        1.1875,NA,NA,"",   10.0259E-03,            0.,       1.18835,   25.9116E-06,   2.71614E+03
C:/ALETube/PressureUpdate/LargeStep/DeformErode/JobErode.odb,Step-1,Increment      9: Step Time =,    90.00,"TUBE-1",         15585,   7.07107E-03,   7.07107E-03,        1.1875,NA,NA,"",   10.0260E-03,            0.,       1.18835,   25.9779E-06,   2.72340E+03
C:/ALETube/PressureUpdate/LargeStep/DeformErode/JobErode.odb,Step-1,Increment      9: Step Time =,    90.00,"TUBE-1",         15749,   7.07107E-03,   7.07107E-03,       1.20000,NA,NA,"",   10.0263E-03,            0.,       1.20084,   26.2508E-06,   2.75196E+03
C:/ALETube/PressureUpdate/LargeStep/DeformErode/JobErode.odb,Step-1,Increment      9: Step Time =,    90.00,"TUBE-1",         15783,   5.87785E-03,   8.09017E-03,       1.20000,NA,NA,"",   10.0262E-03,            0.,       1.20084,   26.1838E-06,   2.74462E+03
C:/ALETube/PressureUpdate/LargeStep/DeformErode/JobErode.odb,Step-1,Increment      9: Step Time =,    90.00,"TUBE-1",         15947,   5.87785E-03,   8.09017E-03,       1.21250,NA,NA,"",   10.0265E-03,  -867.362E-21,       1.21333,   26.4560E-06,   2.77311E+03
C:/ALETube/PressureUpdate/LargeStep/DeformErode/JobErode.odb,Step-1,Increment      9: Step Time =,    90.00,"TUBE-1",         15913,   7.07107E-03,   7.07107E-03,       1.21250,NA,NA,"",   10.0265E-03,            0.,       1.21333,   26.5237E-06,   2.78052E+03
C:/ALETube/PressureUpdate/LargeStep/DeformErode/JobErode.odb,Step-1,Increment      9: Step Time =,    90.00,"TUBE-1",         16111,   5.87785E-03,   8.09017E-03,       1.22500,NA,NA,"",   10.0267E-03,            0.,       1.22582,   26.7282E-06,   2.80158E+03
C:/ALETube/PressureUpdate/LargeStep/DeformErode/JobErode.odb,Step-1,Increment      9: Step Time =,    90.00,"TUBE-1",         16077,   7.07107E-03,   7.07107E-03,       1.22500,NA,NA,"",   10.0268E-03,            0.,       1.22582,   26.7966E-06,   2.80907E+03
C:/ALETube/PressureUpdate/LargeStep/DeformErode/JobErode.odb,Step-1,Increment      9: Step Time =,    90.00,"TUBE-1",         16275,   5.87785E-03,   8.09017E-03,       1.23750,NA,NA,"",   10.0270E-03,            0.,       1.23831,   27.0003E-06,   2.83006E+03
C:/ALETube/PressureUpdate/LargeStep/DeformErode/JobErode.odb,Step-1,Increment      9: Step Time =,    90.00,"TUBE-1",         16241,   7.07107E-03,   7.07107E-03,       1.23750,NA,NA,"",   10.0271E-03,            0.,       1.23831,   27.0694E-06,   2.83762E+03
C:/ALETube/PressureUpdate/LargeStep/DeformErode/JobErode.odb,Step-1,Increment      9: Step Time =,    90.00,"TUBE-1",         16439,   5.87785E-03,   8.09017E-03,          1.25,NA,NA,"",   10.0273E-03,            0.,       1.25080,   27.2725E-06,   2.85853E+03
C:/ALETube/PressureUpdate/LargeStep/DeformErode/JobErode.odb,Step-1,Increment      9: Step Time =,    90.00,"TUBE-1",         16405,   7.07107E-03,   7.07107E-03,          1.25,NA,NA,"",   10.0273E-03,            0.,       1.25080,   27.3422E-06,   2.86617E+03
C:/ALETube/PressureUpdate/LargeStep/DeformErode/JobErode.odb,Step-1,Increment      9: Step Time =,    90.00,"TUBE-1",         16569,   7.07107E-03,   7.07107E-03,       1.26250,NA,NA,"",   10.0276E-03,            0.,       1.26329,   27.6150E-06,   2.89471E+03
C:/ALETube/PressureUpdate/LargeStep/DeformErode/JobErode.odb,Step-1,Increment      9: Step Time =,    90.00,"TUBE-1",         16603,   5.87785E-03,   8.09017E-03,       1.26250,NA,NA,"",   10.0275E-03,  -867.362E-21,       1.26329,   27.5446E-06,   2.88700E+03
C:/ALETube/PressureUpdate/LargeStep/DeformErode/JobErode.odb,Step-1,Increment      9: Step Time =,    90.00,"TUBE-1",         16767,   5.87785E-03,   8.09017E-03,       1.27500,NA,NA,"",   10.0278E-03,  -867.362E-21,       1.27577,   27.8166E-06,   2.91547E+03
C:/ALETube/PressureUpdate/LargeStep/DeformErode/JobErode.odb,Step-1,Increment      9: Step Time =,    90.00,"TUBE-1",         16733,   7.07107E-03,   7.07107E-03,       1.27500,NA,NA,"",   10.0279E-03,            0.,       1.27577,   27.8878E-06,   2.92325E+03
C:/ALETube/PressureUpdate/LargeStep/DeformErode/JobErode.odb,Step-1,Increment      9: Step Time =,    90.00,"TUBE-1",         16931,   5.87785E-03,   8.09017E-03,       1.28750,NA,NA,"",   10.0281E-03,            0.,       1.28826,   28.0887E-06,   2.94393E+03
C:/ALETube/PressureUpdate/LargeStep/DeformErode/JobErode.odb,Step-1,Increment      9: Step Time =,    90.00,"TUBE-1",         16897,   7.07107E-03,   7.07107E-03,       1.28750,NA,NA,"",   10.0282E-03,            0.,       1.28826,   28.1605E-06,   2.95179E+03
C:/ALETube/PressureUpdate/LargeStep/DeformErode/JobErode.odb,Step-1,Increment      9: Step Time =,    90.00,"TUBE-1",         17095,   5.87785E-03,   8.09017E-03,       1.30000,NA,NA,"",   10.0284E-03,  -867.362E-21,       1.30075,   28.3607E-06,   2.97239E+03
C:/ALETube/PressureUpdate/LargeStep/DeformErode/JobErode.odb,Step-1,Increment      9: Step Time =,    90.00,"TUBE-1",         17061,   7.07107E-03,   7.07107E-03,       1.30000,NA,NA,"",   10.0284E-03,            0.,       1.30075,   28.4333E-06,   2.98032E+03
C:/ALETube/PressureUpdate/LargeStep/DeformErode/JobErode.odb,Step-1,Increment      9: Step Time =,    90.00,"TUBE-1",         17259,   5.87785E-03,   8.09017E-03,        1.3125,NA,NA,"",   10.0286E-03,   867.362E-21,       1.31324,   28.6327E-06,   3.00084E+03
C:/ALETube/PressureUpdate/LargeStep/DeformErode/JobErode.odb,Step-1,Increment      9: Step Time =,    90.00,"TUBE-1",         17225,   7.07107E-03,   7.07107E-03,        1.3125,NA,NA,"",   10.0287E-03,            0.,       1.31324,   28.7060E-06,   3.00885E+03
C:/ALETube/PressureUpdate/LargeStep/DeformErode/JobErode.odb,Step-1,Increment      9: Step Time =,    90.00,"TUBE-1",         17389,   7.07107E-03,   7.07107E-03,       1.32500,NA,NA,"",   10.0290E-03,            0.,       1.32573,   28.9786E-06,   3.03738E+03
C:/ALETube/PressureUpdate/LargeStep/DeformErode/JobErode.odb,Step-1,Increment      9: Step Time =,    90.00,"TUBE-1",         17423,   5.87785E-03,   8.09017E-03,       1.32500,NA,NA,"",   10.0289E-03,            0.,       1.32573,   28.9047E-06,   3.02929E+03
C:/ALETube/PressureUpdate/LargeStep/DeformErode/JobErode.odb,Step-1,Increment      9: Step Time =,    90.00,"TUBE-1",         17587,   5.87785E-03,   8.09017E-03,       1.33750,NA,NA,"",   10.0292E-03,            0.,       1.33822,   29.1767E-06,   3.05774E+03
C:/ALETube/PressureUpdate/LargeStep/DeformErode/JobErode.odb,Step-1,Increment      9: Step Time =,    90.00,"TUBE-1",         17553,   7.07107E-03,   7.07107E-03,       1.33750,NA,NA,"",   10.0293E-03,            0.,       1.33822,   29.2513E-06,   3.06590E+03
C:/ALETube/PressureUpdate/LargeStep/DeformErode/JobErode.odb,Step-1,Increment      9: Step Time =,    90.00,"TUBE-1",         17751,   5.87785E-03,   8.09017E-03,       1.35000,NA,NA,"",   10.0294E-03,            0.,       1.35071,   29.4486E-06,   3.08618E+03
C:/ALETube/PressureUpdate/LargeStep/DeformErode/JobErode.odb,Step-1,Increment      9: Step Time =,    90.00,"TUBE-1",         17717,   7.07107E-03,   7.07107E-03,       1.35000,NA,NA,"",   10.0295E-03,            0.,       1.35071,   29.5239E-06,   3.09442E+03
C:/ALETube/PressureUpdate/LargeStep/DeformErode/JobErode.odb,Step-1,Increment      9: Step Time =,    90.00,"TUBE-1",         17915,   5.87785E-03,   8.09017E-03,       1.36250,NA,NA,"",   10.0297E-03,            0.,       1.36320,   29.7205E-06,   3.11462E+03
C:/ALETube/PressureUpdate/LargeStep/DeformErode/JobErode.odb,Step-1,Increment      9: Step Time =,    90.00,"TUBE-1",         17881,   7.07107E-03,   7.07107E-03,       1.36250,NA,NA,"",   10.0298E-03,            0.,       1.36320,   29.7965E-06,   3.12293E+03
C:/ALETube/PressureUpdate/LargeStep/DeformErode/JobErode.odb,Step-1,Increment      9: Step Time =,    90.00,"TUBE-1",         18079,   5.87785E-03,   8.09017E-03,         1.375,NA,NA,"",   10.0300E-03,  -867.362E-21,       1.37569,   29.9924E-06,   3.14306E+03
C:/ALETube/PressureUpdate/LargeStep/DeformErode/JobErode.odb,Step-1,Increment      9: Step Time =,    90.00,"TUBE-1",         18045,   7.07107E-03,   7.07107E-03,         1.375,NA,NA,"",   10.0301E-03,            0.,       1.37569,   30.0690E-06,   3.15144E+03
C:/ALETube/PressureUpdate/LargeStep/DeformErode/JobErode.odb,Step-1,Increment      9: Step Time =,    90.00,"TUBE-1",         18209,   7.07107E-03,   7.07107E-03,       1.38750,NA,NA,"",   10.0303E-03,            0.,       1.38818,   30.3416E-06,   3.17995E+03
C:/ALETube/PressureUpdate/LargeStep/DeformErode/JobErode.odb,Step-1,Increment      9: Step Time =,    90.00,"TUBE-1",         18243,   5.87785E-03,   8.09017E-03,       1.38750,NA,NA,"",   10.0303E-03,   867.362E-21,       1.38818,   30.2642E-06,   3.17149E+03
C:/ALETube/PressureUpdate/LargeStep/DeformErode/JobErode.odb,Step-1,Increment      9: Step Time =,    90.00,"TUBE-1",         18407,   5.87785E-03,   8.09017E-03,       1.40000,NA,NA,"",   10.0305E-03,            0.,       1.40067,   30.5361E-06,   3.19992E+03
C:/ALETube/PressureUpdate/LargeStep/DeformErode/JobErode.odb,Step-1,Increment      9: Step Time =,    90.00,"TUBE-1",         18373,   7.07107E-03,   7.07107E-03,       1.40000,NA,NA,"",   10.0306E-03,            0.,       1.40067,   30.6141E-06,   3.20845E+03
C:/ALETube/PressureUpdate/LargeStep/DeformErode/JobErode.odb,Step-1,Increment      9: Step Time =,    90.00,"TUBE-1",         18571,   5.87785E-03,   8.09017E-03,       1.41250,NA,NA,"",   10.0308E-03,            0.,       1.41315,   30.8079E-06,   3.22834E+03
C:/ALETube/PressureUpdate/LargeStep/DeformErode/JobErode.odb,Step-1,Increment      9: Step Time =,    90.00,"TUBE-1",         18537,   7.07107E-03,   7.07107E-03,       1.41250,NA,NA,"",   10.0309E-03,            0.,       1.41315,   30.8866E-06,   3.23695E+03
C:/ALETube/PressureUpdate/LargeStep/DeformErode/JobErode.odb,Step-1,Increment      9: Step Time =,    90.00,"TUBE-1",         18735,   5.87785E-03,   8.09017E-03,       1.42500,NA,NA,"",   10.0311E-03,  -867.362E-21,       1.42564,   31.0797E-06,   3.25677E+03
C:/ALETube/PressureUpdate/LargeStep/DeformErode/JobErode.odb,Step-1,Increment      9: Step Time =,    90.00,"TUBE-1",         18701,   7.07107E-03,   7.07107E-03,       1.42500,NA,NA,"",   10.0312E-03,            0.,       1.42564,   31.1591E-06,   3.26545E+03
C:/ALETube/PressureUpdate/LargeStep/DeformErode/JobErode.odb,Step-1,Increment      9: Step Time =,    90.00,"TUBE-1",         18899,   5.87785E-03,   8.09017E-03,        1.4375,NA,NA,"",   10.0314E-03,            0.,       1.43813,   31.3514E-06,   3.28518E+03
C:/ALETube/PressureUpdate/LargeStep/DeformErode/JobErode.odb,Step-1,Increment      9: Step Time =,    90.00,"TUBE-1",         18865,   7.07107E-03,   7.07107E-03,        1.4375,NA,NA,"",   10.0314E-03,            0.,       1.43813,   31.4315E-06,   3.29394E+03
C:/ALETube/PressureUpdate/LargeStep/DeformErode/JobErode.odb,Step-1,Increment      9: Step Time =,    90.00,"TUBE-1",         19029,   7.07107E-03,   7.07107E-03,       1.45000,NA,NA,"",   10.0317E-03,            0.,       1.45062,   31.7039E-06,   3.32243E+03
C:/ALETube/PressureUpdate/LargeStep/DeformErode/JobErode.odb,Step-1,Increment      9: Step Time =,    90.00,"TUBE-1",         19063,   5.87785E-03,   8.09017E-03,       1.45000,NA,NA,"",   10.0316E-03,  -867.362E-21,       1.45062,   31.6232E-06,   3.31360E+03
C:/ALETube/PressureUpdate/LargeStep/DeformErode/JobErode.odb,Step-1,Increment      9: Step Time =,    90.00,"TUBE-1",         19227,   5.87785E-03,   8.09017E-03,       1.46250,NA,NA,"",   10.0319E-03,  -867.362E-21,       1.46311,   31.8949E-06,   3.34201E+03
C:/ALETube/PressureUpdate/LargeStep/DeformErode/JobErode.odb,Step-1,Increment      9: Step Time =,    90.00,"TUBE-1",         19193,   7.07107E-03,   7.07107E-03,       1.46250,NA,NA,"",   10.0320E-03,            0.,       1.46311,   31.9763E-06,   3.35092E+03
C:/ALETube/PressureUpdate/LargeStep/DeformErode/JobErode.odb,Step-1,Increment      9: Step Time =,    90.00,"TUBE-1",         19391,   5.87785E-03,   8.09017E-03,       1.47500,NA,NA,"",   10.0322E-03,  -867.362E-21,       1.47559,   32.1666E-06,   3.37042E+03
C:/ALETube/PressureUpdate/LargeStep/DeformErode/JobErode.odb,Step-1,Increment      9: Step Time =,    90.00,"TUBE-1",         19357,   7.07107E-03,   7.07107E-03,       1.47500,NA,NA,"",   10.0322E-03,            0.,       1.47559,   32.2487E-06,   3.37940E+03
C:/ALETube/PressureUpdate/LargeStep/DeformErode/JobErode.odb,Step-1,Increment      9: Step Time =,    90.00,"TUBE-1",         19555,   5.87785E-03,   8.09017E-03,       1.48750,NA,NA,"",   10.0324E-03,            0.,       1.48808,   32.4382E-06,   3.39882E+03
C:/ALETube/PressureUpdate/LargeStep/DeformErode/JobErode.odb,Step-1,Increment      9: Step Time =,    90.00,"TUBE-1",         19521,   7.07107E-03,   7.07107E-03,       1.48750,NA,NA,"",   10.0325E-03,            0.,       1.48808,   32.5210E-06,   3.40788E+03
C:/ALETube/PressureUpdate/LargeStep/DeformErode/JobErode.odb,Step-1,Increment      9: Step Time =,    90.00,"TUBE-1",         19719,   5.87785E-03,   8.09017E-03,           1.5,NA,NA,"",   10.0327E-03,            0.,       1.50057,   32.7099E-06,   3.42722E+03
C:/ALETube/PressureUpdate/LargeStep/DeformErode/JobErode.odb,Step-1,Increment      9: Step Time =,    90.00,"TUBE-1",         19685,   7.07107E-03,   7.07107E-03,           1.5,NA,NA,"",   10.0328E-03,            0.,       1.50057,   32.7934E-06,   3.43636E+03
C:/ALETube/PressureUpdate/LargeStep/DeformErode/JobErode.odb,Step-1,Increment      9: Step Time =,    90.00,"TUBE-1",         19849,   7.07107E-03,   7.07107E-03,       1.51250,NA,NA,"",   10.0331E-03,            0.,       1.51306,   33.0656E-06,   3.46483E+03
C:/ALETube/PressureUpdate/LargeStep/DeformErode/JobErode.odb,Step-1,Increment      9: Step Time =,    90.00,"TUBE-1",         19883,   5.87785E-03,   8.09017E-03,       1.51250,NA,NA,"",   10.0330E-03,  -867.362E-21,       1.51306,   32.9815E-06,   3.45562E+03
C:/ALETube/PressureUpdate/LargeStep/DeformErode/JobErode.odb,Step-1,Increment      9: Step Time =,    90.00,"TUBE-1",         20047,   5.87785E-03,   8.09017E-03,       1.52500,NA,NA,"",   10.0333E-03,   867.362E-21,       1.52555,   33.2531E-06,   3.48401E+03
C:/ALETube/PressureUpdate/LargeStep/DeformErode/JobErode.odb,Step-1,Increment      9: Step Time =,    90.00,"TUBE-1",         20013,   7.07107E-03,   7.07107E-03,       1.52500,NA,NA,"",   10.0333E-03,            0.,       1.52555,   33.3379E-06,   3.49330E+03
C:/ALETube/PressureUpdate/LargeStep/DeformErode/JobErode.odb,Step-1,Increment      9: Step Time =,    90.00,"TUBE-1",         20211,   5.87785E-03,   8.09017E-03,       1.53750,NA,NA,"",   10.0335E-03,            0.,       1.53803,   33.5246E-06,   3.51240E+03
C:/ALETube/PressureUpdate/LargeStep/DeformErode/JobErode.odb,Step-1,Increment      9: Step Time =,    90.00,"TUBE-1",         20177,   7.07107E-03,   7.07107E-03,       1.53750,NA,NA,"",   10.0336E-03,            0.,       1.53803,   33.6102E-06,   3.52176E+03
C:/ALETube/PressureUpdate/LargeStep/DeformErode/JobErode.odb,Step-1,Increment      9: Step Time =,    90.00,"TUBE-1",         20375,   5.87785E-03,   8.09017E-03,       1.55000,NA,NA,"",   10.0338E-03,  -867.362E-21,       1.55052,   33.7962E-06,   3.54079E+03
C:/ALETube/PressureUpdate/LargeStep/DeformErode/JobErode.odb,Step-1,Increment      9: Step Time =,    90.00,"TUBE-1",         20341,   7.07107E-03,   7.07107E-03,       1.55000,NA,NA,"",   10.0339E-03,            0.,       1.55052,   33.8824E-06,   3.55022E+03
C:/ALETube/PressureUpdate/LargeStep/DeformErode/JobErode.odb,Step-1,Increment      9: Step Time =,    90.00,"TUBE-1",         20539,   5.87785E-03,   8.09017E-03,        1.5625,NA,NA,"",   10.0341E-03,            0.,       1.56301,   34.0677E-06,   3.56917E+03
C:/ALETube/PressureUpdate/LargeStep/DeformErode/JobErode.odb,Step-1,Increment      9: Step Time =,    90.00,"TUBE-1",         20505,   7.07107E-03,   7.07107E-03,        1.5625,NA,NA,"",   10.0342E-03,            0.,       1.56301,   34.1546E-06,   3.57868E+03
C:/ALETube/PressureUpdate/LargeStep/DeformErode/JobErode.odb,Step-1,Increment      9: Step Time =,    90.00,"TUBE-1",         20669,   7.07107E-03,   7.07107E-03,       1.57500,NA,NA,"",   10.0344E-03,            0.,       1.57550,   34.4268E-06,   3.60713E+03
C:/ALETube/PressureUpdate/LargeStep/DeformErode/JobErode.odb,Step-1,Increment      9: Step Time =,    90.00,"TUBE-1",         20703,   5.87785E-03,   8.09017E-03,       1.57500,NA,NA,"",   10.0343E-03,            0.,       1.57550,   34.3392E-06,   3.59755E+03
C:/ALETube/PressureUpdate/LargeStep/DeformErode/JobErode.odb,Step-1,Increment      9: Step Time =,    90.00,"TUBE-1",         20867,   5.87785E-03,   8.09017E-03,       1.58750,NA,NA,"",   10.0346E-03,            0.,       1.58798,   34.6107E-06,   3.62593E+03
C:/ALETube/PressureUpdate/LargeStep/DeformErode/JobErode.odb,Step-1,Increment      9: Step Time =,    90.00,"TUBE-1",         20833,   7.07107E-03,   7.07107E-03,       1.58750,NA,NA,"",   10.0347E-03,            0.,       1.58798,   34.6989E-06,   3.63558E+03
C:/ALETube/PressureUpdate/LargeStep/DeformErode/JobErode.odb,Step-1,Increment      9: Step Time =,    90.00,"TUBE-1",         21031,   5.87785E-03,   8.09017E-03,       1.60000,NA,NA,"",   10.0349E-03,            0.,       1.60047,   34.8821E-06,   3.65430E+03
C:/ALETube/PressureUpdate/LargeStep/DeformErode/JobErode.odb,Step-1,Increment      9: Step Time =,    90.00,"TUBE-1",         20997,   7.07107E-03,   7.07107E-03,       1.60000,NA,NA,"",   10.0350E-03,            0.,       1.60047,   34.9710E-06,   3.66403E+03
C:/ALETube/PressureUpdate/LargeStep/DeformErode/JobErode.odb,Step-1,Increment      9: Step Time =,    90.00,"TUBE-1",         21195,   5.87785E-03,   8.09017E-03,       1.61250,NA,NA,"",   10.0352E-03,  -867.362E-21,       1.61296,   35.1535E-06,   3.68267E+03
C:/ALETube/PressureUpdate/LargeStep/DeformErode/JobErode.odb,Step-1,Increment      9: Step Time =,    90.00,"TUBE-1",         21161,   7.07107E-03,   7.07107E-03,       1.61250,NA,NA,"",   10.0352E-03,            0.,       1.61296,   35.2431E-06,   3.69247E+03
C:/ALETube/PressureUpdate/LargeStep/DeformErode/JobErode.odb,Step-1,Increment      9: Step Time =,    90.00,"TUBE-1",         21359,   5.87785E-03,   8.09017E-03,         1.625,NA,NA,"",   10.0354E-03,  -867.362E-21,       1.62544,   35.4249E-06,   3.71103E+03
C:/ALETube/PressureUpdate/LargeStep/DeformErode/JobErode.odb,Step-1,Increment      9: Step Time =,    90.00,"TUBE-1",         21325,   7.07107E-03,   7.07107E-03,         1.625,NA,NA,"",   10.0355E-03,            0.,       1.62544,   35.5152E-06,   3.72091E+03
C:/ALETube/PressureUpdate/LargeStep/DeformErode/JobErode.odb,Step-1,Increment      9: Step Time =,    90.00,"TUBE-1",         21489,   7.07107E-03,   7.07107E-03,       1.63750,NA,NA,"",   10.0358E-03,            0.,       1.63793,   35.7873E-06,   3.74935E+03
C:/ALETube/PressureUpdate/LargeStep/DeformErode/JobErode.odb,Step-1,Increment      9: Step Time =,    90.00,"TUBE-1",         21523,   5.87785E-03,   8.09017E-03,       1.63750,NA,NA,"",   10.0357E-03,  -867.362E-21,       1.63793,   35.6963E-06,   3.73939E+03
C:/ALETube/PressureUpdate/LargeStep/DeformErode/JobErode.odb,Step-1,Increment      9: Step Time =,    90.00,"TUBE-1",         21687,   5.87785E-03,   8.09017E-03,       1.65000,NA,NA,"",   10.0360E-03,  -867.362E-21,       1.65042,   35.9676E-06,   3.76775E+03
C:/ALETube/PressureUpdate/LargeStep/DeformErode/JobErode.odb,Step-1,Increment      9: Step Time =,    90.00,"TUBE-1",         21653,   7.07107E-03,   7.07107E-03,       1.65000,NA,NA,"",   10.0361E-03,            0.,       1.65042,   36.0593E-06,   3.77778E+03
C:/ALETube/PressureUpdate/LargeStep/DeformErode/JobErode.odb,Step-1,Increment      9: Step Time =,    90.00,"TUBE-1",         21851,   5.87785E-03,   8.09017E-03,       1.66250,NA,NA,"",   10.0362E-03,            0.,       1.66290,   36.2389E-06,   3.79611E+03
C:/ALETube/PressureUpdate/LargeStep/DeformErode/JobErode.odb,Step-1,Increment      9: Step Time =,    90.00,"TUBE-1",         21817,   7.07107E-03,   7.07107E-03,       1.66250,NA,NA,"",   10.0363E-03,            0.,       1.66290,   36.3313E-06,   3.80621E+03
C:/ALETube/PressureUpdate/LargeStep/DeformErode/JobErode.odb,Step-1,Increment      9: Step Time =,    90.00,"TUBE-1",         22015,   5.87785E-03,   8.09017E-03,       1.67500,NA,NA,"",   10.0365E-03,  -867.362E-21,       1.67539,   36.5104E-06,   3.82447E+03
C:/ALETube/PressureUpdate/LargeStep/DeformErode/JobErode.odb,Step-1,Increment      9: Step Time =,    90.00,"TUBE-1",         21981,   7.07107E-03,   7.07107E-03,       1.67500,NA,NA,"",   10.0366E-03,            0.,       1.67539,   36.6033E-06,   3.83464E+03
C:/ALETube/PressureUpdate/LargeStep/DeformErode/JobErode.odb,Step-1,Increment      9: Step Time =,    90.00,"TUBE-1",         22179,   5.87785E-03,   8.09017E-03,        1.6875,NA,NA,"",   10.0368E-03,            0.,       1.68788,   36.7816E-06,   3.85281E+03
C:/ALETube/PressureUpdate/LargeStep/DeformErode/JobErode.odb,Step-1,Increment      9: Step Time =,    90.00,"TUBE-1",         22145,   7.07107E-03,   7.07107E-03,        1.6875,NA,NA,"",   10.0369E-03,            0.,       1.68788,   36.8752E-06,   3.86306E+03
C:/ALETube/PressureUpdate/LargeStep/DeformErode/JobErode.odb,Step-1,Increment      9: Step Time =,    90.00,"TUBE-1",         22309,   7.07107E-03,   7.07107E-03,       1.70000,NA,NA,"",   10.0371E-03,            0.,       1.70036,   37.1472E-06,   3.89147E+03
C:/ALETube/PressureUpdate/LargeStep/DeformErode/JobErode.odb,Step-1,Increment      9: Step Time =,    90.00,"TUBE-1",         22343,   5.87785E-03,   8.09017E-03,       1.70000,NA,NA,"",   10.0371E-03,            0.,       1.70036,   37.0528E-06,   3.88115E+03
C:/ALETube/PressureUpdate/LargeStep/DeformErode/JobErode.odb,Step-1,Increment      9: Step Time =,    90.00,"TUBE-1",         22507,   5.87785E-03,   8.09017E-03,       1.71250,NA,NA,"",   10.0373E-03,            0.,       1.71285,   37.3240E-06,   3.90949E+03
C:/ALETube/PressureUpdate/LargeStep/DeformErode/JobErode.odb,Step-1,Increment      9: Step Time =,    90.00,"TUBE-1",         22473,   7.07107E-03,   7.07107E-03,       1.71250,NA,NA,"",   10.0374E-03,            0.,       1.71285,   37.4191E-06,   3.91989E+03
C:/ALETube/PressureUpdate/LargeStep/DeformErode/JobErode.odb,Step-1,Increment      9: Step Time =,    90.00,"TUBE-1",         22671,   5.87785E-03,   8.09017E-03,       1.72500,NA,NA,"",   10.0376E-03,            0.,       1.72533,   37.5953E-06,   3.93783E+03
C:/ALETube/PressureUpdate/LargeStep/DeformErode/JobErode.odb,Step-1,Increment      9: Step Time =,    90.00,"TUBE-1",         22637,   7.07107E-03,   7.07107E-03,       1.72500,NA,NA,"",   10.0377E-03,            0.,       1.72533,   37.6909E-06,   3.94830E+03
C:/ALETube/PressureUpdate/LargeStep/DeformErode/JobErode.odb,Step-1,Increment      9: Step Time =,    90.00,"TUBE-1",         22835,   5.87785E-03,   8.09017E-03,       1.73750,NA,NA,"",   10.0379E-03,  -867.362E-21,       1.73782,   37.8666E-06,   3.96618E+03
C:/ALETube/PressureUpdate/LargeStep/DeformErode/JobErode.odb,Step-1,Increment      9: Step Time =,    90.00,"TUBE-1",         22801,   7.07107E-03,   7.07107E-03,       1.73750,NA,NA,"",   10.0380E-03,            0.,       1.73782,   37.9629E-06,   3.97672E+03
C:/ALETube/PressureUpdate/LargeStep/DeformErode/JobErode.odb,Step-1,Increment      9: Step Time =,    90.00,"TUBE-1",         22999,   5.87785E-03,   8.09017E-03,          1.75,NA,NA,"",   10.0381E-03,            0.,       1.75031,   38.1377E-06,   3.99451E+03
C:/ALETube/PressureUpdate/LargeStep/DeformErode/JobErode.odb,Step-1,Increment      9: Step Time =,    90.00,"TUBE-1",         22965,   7.07107E-03,   7.07107E-03,          1.75,NA,NA,"",   10.0382E-03,            0.,       1.75031,   38.2347E-06,   4.00512E+03
C:/ALETube/PressureUpdate/LargeStep/DeformErode/JobErode.odb,Step-1,Increment      9: Step Time =,    90.00,"TUBE-1",         23129,   7.07107E-03,   7.07107E-03,       1.76250,NA,NA,"",   10.0385E-03,            0.,       1.76279,   38.5065E-06,   4.03352E+03
C:/ALETube/PressureUpdate/LargeStep/DeformErode/JobErode.odb,Step-1,Increment      9: Step Time =,    90.00,"TUBE-1",         23163,   5.87785E-03,   8.09017E-03,       1.76250,NA,NA,"",   10.0384E-03,            0.,       1.76279,   38.4088E-06,   4.02283E+03
C:/ALETube/PressureUpdate/LargeStep/DeformErode/JobErode.odb,Step-1,Increment      9: Step Time =,    90.00,"TUBE-1",         23327,   5.87785E-03,   8.09017E-03,       1.77500,NA,NA,"",   10.0387E-03,            0.,       1.77528,   38.6800E-06,   4.05116E+03
C:/ALETube/PressureUpdate/LargeStep/DeformErode/JobErode.odb,Step-1,Increment      9: Step Time =,    90.00,"TUBE-1",         23293,   7.07107E-03,   7.07107E-03,       1.77500,NA,NA,"",   10.0388E-03,            0.,       1.77528,   38.7784E-06,   4.06192E+03
C:/ALETube/PressureUpdate/LargeStep/DeformErode/JobErode.odb,Step-1,Increment      9: Step Time =,    90.00,"TUBE-1",         23491,   5.87785E-03,   8.09017E-03,       1.78750,NA,NA,"",   10.0390E-03,            0.,       1.78776,   38.9511E-06,   4.07948E+03
C:/ALETube/PressureUpdate/LargeStep/DeformErode/JobErode.odb,Step-1,Increment      9: Step Time =,    90.00,"TUBE-1",         23457,   7.07107E-03,   7.07107E-03,       1.78750,NA,NA,"",   10.0391E-03,            0.,       1.78776,   39.0501E-06,   4.09032E+03
C:/ALETube/PressureUpdate/LargeStep/DeformErode/JobErode.odb,Step-1,Increment      9: Step Time =,    90.00,"TUBE-1",         23655,   5.87785E-03,   8.09017E-03,       1.80000,NA,NA,"",   10.0392E-03,            0.,       1.80025,   39.2222E-06,   4.10780E+03
C:/ALETube/PressureUpdate/LargeStep/DeformErode/JobErode.odb,Step-1,Increment      9: Step Time =,    90.00,"TUBE-1",         23621,   7.07107E-03,   7.07107E-03,       1.80000,NA,NA,"",   10.0393E-03,            0.,       1.80025,   39.3219E-06,   4.11871E+03
C:/ALETube/PressureUpdate/LargeStep/DeformErode/JobErode.odb,Step-1,Increment      9: Step Time =,    90.00,"TUBE-1",         23819,   5.87785E-03,   8.09017E-03,        1.8125,NA,NA,"",   10.0395E-03,   867.362E-21,       1.81273,   39.4932E-06,   4.13611E+03
C:/ALETube/PressureUpdate/LargeStep/DeformErode/JobErode.odb,Step-1,Increment      9: Step Time =,    90.00,"TUBE-1",         23785,   7.07107E-03,   7.07107E-03,        1.8125,NA,NA,"",   10.0396E-03,            0.,       1.81273,   39.5936E-06,   4.14709E+03
C:/ALETube/PressureUpdate/LargeStep/DeformErode/JobErode.odb,Step-1,Increment      9: Step Time =,    90.00,"TUBE-1",         23949,   7.07107E-03,   7.07107E-03,       1.82500,NA,NA,"",   10.0399E-03,            0.,       1.82522,   39.8653E-06,   4.17548E+03
C:/ALETube/PressureUpdate/LargeStep/DeformErode/JobErode.odb,Step-1,Increment      9: Step Time =,    90.00,"TUBE-1",         23983,   5.87785E-03,   8.09017E-03,       1.82500,NA,NA,"",   10.0398E-03,            0.,       1.82522,   39.7642E-06,   4.16442E+03
C:/ALETube/PressureUpdate/LargeStep/DeformErode/JobErode.odb,Step-1,Increment      9: Step Time =,    90.00,"TUBE-1",         24147,   5.87785E-03,   8.09017E-03,       1.83750,NA,NA,"",   10.0400E-03,   867.362E-21,       1.83770,   40.0352E-06,   4.19273E+03
C:/ALETube/PressureUpdate/LargeStep/DeformErode/JobErode.odb,Step-1,Increment      9: Step Time =,    90.00,"TUBE-1",         24113,   7.07107E-03,   7.07107E-03,       1.83750,NA,NA,"",   10.0401E-03,            0.,       1.83770,   40.1369E-06,   4.20386E+03
C:/ALETube/PressureUpdate/LargeStep/DeformErode/JobErode.odb,Step-1,Increment      9: Step Time =,    90.00,"TUBE-1",         24311,   5.87785E-03,   8.09017E-03,       1.85000,NA,NA,"",   10.0403E-03,  -867.362E-21,       1.85019,   40.3062E-06,   4.22103E+03
C:/ALETube/PressureUpdate/LargeStep/DeformErode/JobErode.odb,Step-1,Increment      9: Step Time =,    90.00,"TUBE-1",         24277,   7.07107E-03,   7.07107E-03,       1.85000,NA,NA,"",   10.0404E-03,            0.,       1.85019,   40.4086E-06,   4.23223E+03
C:/ALETube/PressureUpdate/LargeStep/DeformErode/JobErode.odb,Step-1,Increment      9: Step Time =,    90.00,"TUBE-1",         24475,   5.87785E-03,   8.09017E-03,       1.86250,NA,NA,"",   10.0406E-03,  -867.362E-21,       1.86267,   40.5771E-06,   4.24933E+03
C:/ALETube/PressureUpdate/LargeStep/DeformErode/JobErode.odb,Step-1,Increment      9: Step Time =,    90.00,"TUBE-1",         24441,   7.07107E-03,   7.07107E-03,       1.86250,NA,NA,"",   10.0407E-03,            0.,       1.86267,   40.6802E-06,   4.26060E+03
C:/ALETube/PressureUpdate/LargeStep/DeformErode/JobErode.odb,Step-1,Increment      9: Step Time =,    90.00,"TUBE-1",         24639,   5.87785E-03,   8.09017E-03,         1.875,NA,NA,"",   10.0408E-03,            0.,       1.87516,   40.8480E-06,   4.27762E+03
C:/ALETube/PressureUpdate/LargeStep/DeformErode/JobErode.odb,Step-1,Increment      9: Step Time =,    90.00,"TUBE-1",         24605,   7.07107E-03,   7.07107E-03,         1.875,NA,NA,"",   10.0410E-03,            0.,       1.87516,   40.9518E-06,   4.28897E+03
C:/ALETube/PressureUpdate/LargeStep/DeformErode/JobErode.odb,Step-1,Increment      9: Step Time =,    90.00,"TUBE-1",         24769,   7.07107E-03,   7.07107E-03,       1.88750,NA,NA,"",   10.0412E-03,            0.,       1.88764,   41.2233E-06,   4.31733E+03
C:/ALETube/PressureUpdate/LargeStep/DeformErode/JobErode.odb,Step-1,Increment      9: Step Time =,    90.00,"TUBE-1",         24803,   5.87785E-03,   8.09017E-03,       1.88750,NA,NA,"",   10.0411E-03,            0.,       1.88764,   41.1189E-06,   4.30591E+03
C:/ALETube/PressureUpdate/LargeStep/DeformErode/JobErode.odb,Step-1,Increment      9: Step Time =,    90.00,"TUBE-1",         24967,   5.87785E-03,   8.09017E-03,       1.90000,NA,NA,"",   10.0414E-03,            0.,       1.90013,   41.3898E-06,   4.33420E+03
C:/ALETube/PressureUpdate/LargeStep/DeformErode/JobErode.odb,Step-1,Increment      9: Step Time =,    90.00,"TUBE-1",         24933,   7.07107E-03,   7.07107E-03,       1.90000,NA,NA,"",   10.0415E-03,            0.,       1.90013,   41.4949E-06,   4.34570E+03
C:/ALETube/PressureUpdate/LargeStep/DeformErode/JobErode.odb,Step-1,Increment      9: Step Time =,    90.00,"TUBE-1",         25131,   5.87785E-03,   8.09017E-03,       1.91250,NA,NA,"",   10.0417E-03,  -867.362E-21,       1.91261,   41.6606E-06,   4.36248E+03
C:/ALETube/PressureUpdate/LargeStep/DeformErode/JobErode.odb,Step-1,Increment      9: Step Time =,    90.00,"TUBE-1",         25097,   7.07107E-03,   7.07107E-03,       1.91250,NA,NA,"",   10.0418E-03,            0.,       1.91261,   41.7664E-06,   4.37405E+03
C:/ALETube/PressureUpdate/LargeStep/DeformErode/JobErode.odb,Step-1,Increment      9: Step Time =,    90.00,"TUBE-1",         25295,   5.87785E-03,   8.09017E-03,       1.92500,NA,NA,"",   10.0419E-03,            0.,       1.92510,   41.9315E-06,   4.39077E+03
C:/ALETube/PressureUpdate/LargeStep/DeformErode/JobErode.odb,Step-1,Increment      9: Step Time =,    90.00,"TUBE-1",         25261,   7.07107E-03,   7.07107E-03,       1.92500,NA,NA,"",   10.0420E-03,            0.,       1.92510,   42.0379E-06,   4.40242E+03
C:/ALETube/PressureUpdate/LargeStep/DeformErode/JobErode.odb,Step-1,Increment      9: Step Time =,    90.00,"TUBE-1",         25459,   5.87785E-03,   8.09017E-03,        1.9375,NA,NA,"",   10.0422E-03,            0.,       1.93758,   42.2020E-06,   4.41900E+03
C:/ALETube/PressureUpdate/LargeStep/DeformErode/JobErode.odb,Step-1,Increment      9: Step Time =,    90.00,"TUBE-1",         25425,   7.07107E-03,   7.07107E-03,        1.9375,NA,NA,"",   10.0423E-03,            0.,       1.93758,   42.3091E-06,   4.43072E+03
C:/ALETube/PressureUpdate/LargeStep/DeformErode/JobErode.odb,Step-1,Increment      9: Step Time =,    90.00,"TUBE-1",         25589,   7.07107E-03,   7.07107E-03,       1.95000,NA,NA,"",   10.0426E-03,            0.,       1.95006,   42.5817E-06,   4.45919E+03
C:/ALETube/PressureUpdate/LargeStep/DeformErode/JobErode.odb,Step-1,Increment      9: Step Time =,    90.00,"TUBE-1",         25623,   5.87785E-03,   8.09017E-03,       1.95000,NA,NA,"",   10.0425E-03,   867.362E-21,       1.95006,   42.4739E-06,   4.44739E+03
C:/ALETube/PressureUpdate/LargeStep/DeformErode/JobErode.odb,Step-1,Increment      9: Step Time =,    90.00,"TUBE-1",         25787,   5.87785E-03,   8.09017E-03,       1.96250,NA,NA,"",   10.0427E-03,            0.,       1.96255,   42.7393E-06,   4.47518E+03
C:/ALETube/PressureUpdate/LargeStep/DeformErode/JobErode.odb,Step-1,Increment      9: Step Time =,    90.00,"TUBE-1",         25753,   7.07107E-03,   7.07107E-03,       1.96250,NA,NA,"",   10.0428E-03,            0.,       1.96255,   42.8476E-06,   4.48701E+03
C:/ALETube/PressureUpdate/LargeStep/DeformErode/JobErode.odb,Step-1,Increment      9: Step Time =,    90.00,"TUBE-1",         25951,   5.87785E-03,   8.09017E-03,       1.97500,NA,NA,"",   10.0430E-03,  -867.362E-21,       1.97503,   43.0212E-06,   4.50418E+03
C:/ALETube/PressureUpdate/LargeStep/DeformErode/JobErode.odb,Step-1,Increment      9: Step Time =,    90.00,"TUBE-1",         25917,   7.07107E-03,   7.07107E-03,       1.97500,NA,NA,"",   10.0431E-03,            0.,       1.97503,   43.1292E-06,   4.51607E+03
C:/ALETube/PressureUpdate/LargeStep/DeformErode/JobErode.odb,Step-1,Increment      9: Step Time =,    90.00,"TUBE-1",         26115,   5.87785E-03,   8.09017E-03,       1.98750,NA,NA,"",   10.0433E-03,            0.,       1.98751,   43.2996E-06,   4.53310E+03
C:/ALETube/PressureUpdate/LargeStep/DeformErode/JobErode.odb,Step-1,Increment      9: Step Time =,    90.00,"TUBE-1",         26081,   7.07107E-03,   7.07107E-03,       1.98750,NA,NA,"",   10.0434E-03,            0.,       1.98751,   43.4161E-06,   4.54559E+03
C:/ALETube/PressureUpdate/LargeStep/DeformErode/JobErode.odb,Step-1,Increment      9: Step Time =,    90.00,"TUBE-1",         26279,   5.87785E-03,   8.09017E-03,            2.,NA,NA,"",   10.0434E-03,            0.,            2.,   43.3768E-06,   4.53741E+03
C:/ALETube/PressureUpdate/LargeStep/DeformErode/JobErode.odb,Step-1,Increment      9: Step Time =,    90.00,"TUBE-1",         26245,   7.07107E-03,   7.07107E-03,            2.,NA,NA,"",   10.0435E-03,            0.,            2.,   43.4817E-06,   4.55195E+03
C:/ALETube/PressureUpdate/LargeStep/DeformErode/JobErode.odb,Step-1,Increment     10: Step Time =,    100.0,"TUBE-1",            39,   5.87785E-03,   8.09017E-03,            0.,NA,NA,"",   9.99991E-03,            0.,   1.28805E-03,  -90.9591E-09,       6.11897
C:/ALETube/PressureUpdate/LargeStep/DeformErode/JobErode.odb,Step-1,Increment     10: Step Time =,    100.0,"TUBE-1",             5,   7.07107E-03,   7.07107E-03,            0.,NA,NA,"",   9.99991E-03,            0.,   1.28805E-03,  -90.5283E-09,       6.10766
C:/ALETube/PressureUpdate/LargeStep/DeformErode/JobErode.odb,Step-1,Increment     10: Step Time =,    100.0,"TUBE-1",           203,   5.87785E-03,   8.09017E-03,   12.5000E-03,NA,NA,"",   10.0002E-03,            0.,   13.7941E-03,   218.625E-09,       21.8670
C:/ALETube/PressureUpdate/LargeStep/DeformErode/JobErode.odb,Step-1,Increment     10: Step Time =,    100.0,"TUBE-1",           169,   7.07107E-03,   7.07107E-03,   12.5000E-03,NA,NA,"",   10.0002E-03,            0.,   13.7928E-03,   219.430E-09,       21.9491
C:/ALETube/PressureUpdate/LargeStep/DeformErode/JobErode.odb,Step-1,Increment     10: Step Time =,    100.0,"TUBE-1",           333,   7.07107E-03,   7.07107E-03,   25.0000E-03,NA,NA,"",   10.0005E-03,            0.,   26.2883E-03,   472.927E-09,       50.3858
C:/ALETube/PressureUpdate/LargeStep/DeformErode/JobErode.odb,Step-1,Increment     10: Step Time =,    100.0,"TUBE-1",           367,   5.87785E-03,   8.09017E-03,   25.0000E-03,NA,NA,"",   10.0005E-03,            0.,   26.2884E-03,   471.335E-09,       50.2129
C:/ALETube/PressureUpdate/LargeStep/DeformErode/JobErode.odb,Step-1,Increment     10: Step Time =,    100.0,"TUBE-1",           531,   5.87785E-03,   8.09017E-03,   37.5000E-03,NA,NA,"",   10.0007E-03,            0.,   38.7877E-03,   746.230E-09,       78.1543
C:/ALETube/PressureUpdate/LargeStep/DeformErode/JobErode.odb,Step-1,Increment     10: Step Time =,    100.0,"TUBE-1",           497,   7.07107E-03,   7.07107E-03,   37.5000E-03,NA,NA,"",   10.0007E-03,            0.,   38.7877E-03,   748.702E-09,       78.4192
C:/ALETube/PressureUpdate/LargeStep/DeformErode/JobErode.odb,Step-1,Increment     10: Step Time =,    100.0,"TUBE-1",           695,   5.87785E-03,   8.09017E-03,   50.0000E-03,NA,NA,"",   10.0010E-03,   867.362E-21,   51.2873E-03,   1.01387E-06,       106.635
C:/ALETube/PressureUpdate/LargeStep/DeformErode/JobErode.odb,Step-1,Increment     10: Step Time =,    100.0,"TUBE-1",           661,   7.07107E-03,   7.07107E-03,   50.0000E-03,NA,NA,"",   10.0010E-03,            0.,   51.2873E-03,   1.01719E-06,       106.991
C:/ALETube/PressureUpdate/LargeStep/DeformErode/JobErode.odb,Step-1,Increment     10: Step Time =,    100.0,"TUBE-1",           825,   7.07107E-03,   7.07107E-03,      62.5E-03,NA,NA,"",   10.0013E-03,            0.,   63.7869E-03,   1.28839E-06,       135.274
C:/ALETube/PressureUpdate/LargeStep/DeformErode/JobErode.odb,Step-1,Increment     10: Step Time =,    100.0,"TUBE-1",           859,   5.87785E-03,   8.09017E-03,      62.5E-03,NA,NA,"",   10.0013E-03,  -867.362E-21,   63.7869E-03,   1.28422E-06,       134.827
C:/ALETube/PressureUpdate/LargeStep/DeformErode/JobErode.odb,Step-1,Increment     10: Step Time =,    100.0,"TUBE-1",          1023,   5.87785E-03,   8.09017E-03,   75.0000E-03,NA,NA,"",   10.0016E-03,            0.,   76.2864E-03,   1.55328E-06,       163.157
C:/ALETube/PressureUpdate/LargeStep/DeformErode/JobErode.odb,Step-1,Increment     10: Step Time =,    100.0,"TUBE-1",           989,   7.07107E-03,   7.07107E-03,   75.0000E-03,NA,NA,"",   10.0016E-03,            0.,   76.2864E-03,   1.55829E-06,       163.696
C:/ALETube/PressureUpdate/LargeStep/DeformErode/JobErode.odb,Step-1,Increment     10: Step Time =,    100.0,"TUBE-1",          1187,   5.87785E-03,   8.09017E-03,   87.5000E-03,NA,NA,"",   10.0018E-03,            0.,   88.7857E-03,   1.82293E-06,       191.422
C:/ALETube/PressureUpdate/LargeStep/DeformErode/JobErode.odb,Step-1,Increment     10: Step Time =,    100.0,"TUBE-1",          1153,   7.07107E-03,   7.07107E-03,   87.5000E-03,NA,NA,"",   10.0018E-03,            0.,   88.7857E-03,   1.82879E-06,       192.051
C:/ALETube/PressureUpdate/LargeStep/DeformErode/JobErode.odb,Step-1,Increment     10: Step Time =,    100.0,"TUBE-1",          1351,   5.87785E-03,   8.09017E-03,   100.000E-03,NA,NA,"",   10.0021E-03,  -547.418E-12,   101.285E-03,   2.09227E-06,       219.715
C:/ALETube/PressureUpdate/LargeStep/DeformErode/JobErode.odb,Step-1,Increment     10: Step Time =,    100.0,"TUBE-1",          1317,   7.07107E-03,   7.07107E-03,   100.000E-03,NA,NA,"",   10.0021E-03,            0.,   101.285E-03,   2.09898E-06,       220.435
C:/ALETube/PressureUpdate/LargeStep/DeformErode/JobErode.odb,Step-1,Increment     10: Step Time =,    100.0,"TUBE-1",          1515,   5.87785E-03,   8.09017E-03,   112.500E-03,NA,NA,"",   10.0024E-03,            0.,   113.784E-03,   2.36171E-06,       247.990
C:/ALETube/PressureUpdate/LargeStep/DeformErode/JobErode.odb,Step-1,Increment     10: Step Time =,    100.0,"TUBE-1",          1481,   7.07107E-03,   7.07107E-03,   112.500E-03,NA,NA,"",   10.0024E-03,            0.,   113.784E-03,   2.36927E-06,       248.801
C:/ALETube/PressureUpdate/LargeStep/DeformErode/JobErode.odb,Step-1,Increment     10: Step Time =,    100.0,"TUBE-1",          1645,   7.07107E-03,   7.07107E-03,      125.E-03,NA,NA,"",   10.0026E-03,            0.,   126.283E-03,   2.63948E-06,       277.172
C:/ALETube/PressureUpdate/LargeStep/DeformErode/JobErode.odb,Step-1,Increment     10: Step Time =,    100.0,"TUBE-1",          1679,   5.87785E-03,   8.09017E-03,      125.E-03,NA,NA,"",   10.0026E-03,            0.,   126.283E-03,   2.63107E-06,       276.269
C:/ALETube/PressureUpdate/LargeStep/DeformErode/JobErode.odb,Step-1,Increment     10: Step Time =,    100.0,"TUBE-1",          1843,   5.87785E-03,   8.09017E-03,   137.500E-03,NA,NA,"",   10.0029E-03,            0.,   138.782E-03,   2.90044E-06,       304.542
C:/ALETube/PressureUpdate/LargeStep/DeformErode/JobErode.odb,Step-1,Increment     10: Step Time =,    100.0,"TUBE-1",          1809,   7.07107E-03,   7.07107E-03,   137.500E-03,NA,NA,"",   10.0029E-03,            0.,   138.782E-03,   2.90970E-06,       305.536
C:/ALETube/PressureUpdate/LargeStep/DeformErode/JobErode.odb,Step-1,Increment     10: Step Time =,    100.0,"TUBE-1",          2007,   5.87785E-03,   8.09017E-03,   150.000E-03,NA,NA,"",   10.0032E-03,  -867.362E-21,   151.281E-03,   3.16976E-06,       332.813
C:/ALETube/PressureUpdate/LargeStep/DeformErode/JobErode.odb,Step-1,Increment     10: Step Time =,    100.0,"TUBE-1",          1973,   7.07107E-03,   7.07107E-03,   150.000E-03,NA,NA,"",   10.0032E-03,            0.,   151.281E-03,   3.17987E-06,       333.898
C:/ALETube/PressureUpdate/LargeStep/DeformErode/JobErode.odb,Step-1,Increment     10: Step Time =,    100.0,"TUBE-1",          2171,   5.87785E-03,   8.09017E-03,   162.500E-03,NA,NA,"",   10.0034E-03,  -867.362E-21,   163.780E-03,   3.43907E-06,       361.080
C:/ALETube/PressureUpdate/LargeStep/DeformErode/JobErode.odb,Step-1,Increment     10: Step Time =,    100.0,"TUBE-1",          2137,   7.07107E-03,   7.07107E-03,   162.500E-03,NA,NA,"",   10.0034E-03,            0.,   163.780E-03,   3.45003E-06,       362.256
C:/ALETube/PressureUpdate/LargeStep/DeformErode/JobErode.odb,Step-1,Increment     10: Step Time =,    100.0,"TUBE-1",          2335,   5.87785E-03,   8.09017E-03,   175.000E-03,NA,NA,"",   10.0037E-03,  -867.362E-21,   176.278E-03,   3.70836E-06,       389.345
C:/ALETube/PressureUpdate/LargeStep/DeformErode/JobErode.odb,Step-1,Increment     10: Step Time =,    100.0,"TUBE-1",          2301,   7.07107E-03,   7.07107E-03,   175.000E-03,NA,NA,"",   10.0037E-03,            0.,   176.278E-03,   3.72016E-06,       390.611
C:/ALETube/PressureUpdate/LargeStep/DeformErode/JobErode.odb,Step-1,Increment     10: Step Time =,    100.0,"TUBE-1",          2465,   7.07107E-03,   7.07107E-03,     187.5E-03,NA,NA,"",   10.0040E-03,            0.,   188.777E-03,   3.99027E-06,       418.962
C:/ALETube/PressureUpdate/LargeStep/DeformErode/JobErode.odb,Step-1,Increment     10: Step Time =,    100.0,"TUBE-1",          2499,   5.87785E-03,   8.09017E-03,     187.5E-03,NA,NA,"",   10.0040E-03,            0.,   188.777E-03,   3.97762E-06,       417.605
C:/ALETube/PressureUpdate/LargeStep/DeformErode/JobErode.odb,Step-1,Increment     10: Step Time =,    100.0,"TUBE-1",          2663,   5.87785E-03,   8.09017E-03,   200.000E-03,NA,NA,"",   10.0042E-03,            0.,   201.275E-03,   4.24685E-06,       445.863
C:/ALETube/PressureUpdate/LargeStep/DeformErode/JobErode.odb,Step-1,Increment     10: Step Time =,    100.0,"TUBE-1",          2629,   7.07107E-03,   7.07107E-03,   200.000E-03,NA,NA,"",   10.0043E-03,            0.,   201.275E-03,   4.26035E-06,       447.310
C:/ALETube/PressureUpdate/LargeStep/DeformErode/JobErode.odb,Step-1,Increment     10: Step Time =,    100.0,"TUBE-1",          2827,   5.87785E-03,   8.09017E-03,   212.500E-03,NA,NA,"",   10.0045E-03,            0.,   213.774E-03,   4.51607E-06,       474.116
C:/ALETube/PressureUpdate/LargeStep/DeformErode/JobErode.odb,Step-1,Increment     10: Step Time =,    100.0,"TUBE-1",          2793,   7.07107E-03,   7.07107E-03,   212.500E-03,NA,NA,"",   10.0045E-03,            0.,   213.774E-03,   4.53041E-06,       475.655
C:/ALETube/PressureUpdate/LargeStep/DeformErode/JobErode.odb,Step-1,Increment     10: Step Time =,    100.0,"TUBE-1",          2991,   5.87785E-03,   8.09017E-03,   225.000E-03,NA,NA,"",   10.0048E-03,  -867.362E-21,   226.272E-03,   4.78525E-06,       502.367
C:/ALETube/PressureUpdate/LargeStep/DeformErode/JobErode.odb,Step-1,Increment     10: Step Time =,    100.0,"TUBE-1",          2957,   7.07107E-03,   7.07107E-03,   225.000E-03,NA,NA,"",   10.0048E-03,            0.,   226.272E-03,   4.80044E-06,       503.996
C:/ALETube/PressureUpdate/LargeStep/DeformErode/JobErode.odb,Step-1,Increment     10: Step Time =,    100.0,"TUBE-1",          3155,   5.87785E-03,   8.09017E-03,   237.500E-03,NA,NA,"",   10.0051E-03,  -867.362E-21,   238.770E-03,   5.05442E-06,       530.614
C:/ALETube/PressureUpdate/LargeStep/DeformErode/JobErode.odb,Step-1,Increment     10: Step Time =,    100.0,"TUBE-1",          3121,   7.07107E-03,   7.07107E-03,   237.500E-03,NA,NA,"",   10.0051E-03,            0.,   238.770E-03,   5.07045E-06,       532.333
C:/ALETube/PressureUpdate/LargeStep/DeformErode/JobErode.odb,Step-1,Increment     10: Step Time =,    100.0,"TUBE-1",          3285,   7.07107E-03,   7.07107E-03,      250.E-03,NA,NA,"",   10.0053E-03,            0.,   251.268E-03,   5.34044E-06,       560.668
C:/ALETube/PressureUpdate/LargeStep/DeformErode/JobErode.odb,Step-1,Increment     10: Step Time =,    100.0,"TUBE-1",          3319,   5.87785E-03,   8.09017E-03,      250.E-03,NA,NA,"",   10.0053E-03,  -867.362E-21,   251.268E-03,   5.32356E-06,       558.857
C:/ALETube/PressureUpdate/LargeStep/DeformErode/JobErode.odb,Step-1,Increment     10: Step Time =,    100.0,"TUBE-1",          3483,   5.87785E-03,   8.09017E-03,   262.500E-03,NA,NA,"",   10.0056E-03,            0.,   263.766E-03,   5.59267E-06,       587.097
C:/ALETube/PressureUpdate/LargeStep/DeformErode/JobErode.odb,Step-1,Increment     10: Step Time =,    100.0,"TUBE-1",          3449,   7.07107E-03,   7.07107E-03,   262.500E-03,NA,NA,"",   10.0056E-03,            0.,   263.766E-03,   5.61040E-06,       588.998
C:/ALETube/PressureUpdate/LargeStep/DeformErode/JobErode.odb,Step-1,Increment     10: Step Time =,    100.0,"TUBE-1",          3647,   5.87785E-03,   8.09017E-03,   275.000E-03,NA,NA,"",   10.0059E-03,            0.,   276.264E-03,   5.86177E-06,       615.334
C:/ALETube/PressureUpdate/LargeStep/DeformErode/JobErode.odb,Step-1,Increment     10: Step Time =,    100.0,"TUBE-1",          3613,   7.07107E-03,   7.07107E-03,   275.000E-03,NA,NA,"",   10.0059E-03,            0.,   276.264E-03,   5.88034E-06,       617.325
C:/ALETube/PressureUpdate/LargeStep/DeformErode/JobErode.odb,Step-1,Increment     10: Step Time =,    100.0,"TUBE-1",          3811,   5.87785E-03,   8.09017E-03,   287.500E-03,NA,NA,"",   10.0061E-03,            0.,   288.762E-03,   6.13084E-06,       643.567
C:/ALETube/PressureUpdate/LargeStep/DeformErode/JobErode.odb,Step-1,Increment     10: Step Time =,    100.0,"TUBE-1",          3777,   7.07107E-03,   7.07107E-03,   287.500E-03,NA,NA,"",   10.0062E-03,            0.,   288.762E-03,   6.15025E-06,       645.649
C:/ALETube/PressureUpdate/LargeStep/DeformErode/JobErode.odb,Step-1,Increment     10: Step Time =,    100.0,"TUBE-1",          3975,   5.87785E-03,   8.09017E-03,   300.000E-03,NA,NA,"",   10.0064E-03,            0.,   301.259E-03,   6.39988E-06,       671.797
C:/ALETube/PressureUpdate/LargeStep/DeformErode/JobErode.odb,Step-1,Increment     10: Step Time =,    100.0,"TUBE-1",          3941,   7.07107E-03,   7.07107E-03,   300.000E-03,NA,NA,"",   10.0064E-03,            0.,   301.259E-03,   6.42014E-06,       673.969
C:/ALETube/PressureUpdate/LargeStep/DeformErode/JobErode.odb,Step-1,Increment     10: Step Time =,    100.0,"TUBE-1",          4105,   7.07107E-03,   7.07107E-03,     312.5E-03,NA,NA,"",   10.0067E-03,            0.,   313.757E-03,   6.69001E-06,       702.286
C:/ALETube/PressureUpdate/LargeStep/DeformErode/JobErode.odb,Step-1,Increment     10: Step Time =,    100.0,"TUBE-1",          4139,   5.87785E-03,   8.09017E-03,     312.5E-03,NA,NA,"",   10.0067E-03,            0.,   313.757E-03,   6.66890E-06,       700.023
C:/ALETube/PressureUpdate/LargeStep/DeformErode/JobErode.odb,Step-1,Increment     10: Step Time =,    100.0,"TUBE-1",          4303,   5.87785E-03,   8.09017E-03,   325.000E-03,NA,NA,"",   10.0069E-03,            0.,   326.254E-03,   6.93790E-06,       728.246
C:/ALETube/PressureUpdate/LargeStep/DeformErode/JobErode.odb,Step-1,Increment     10: Step Time =,    100.0,"TUBE-1",          4269,   7.07107E-03,   7.07107E-03,   325.000E-03,NA,NA,"",   10.0070E-03,            0.,   326.254E-03,   6.95985E-06,       730.599
C:/ALETube/PressureUpdate/LargeStep/DeformErode/JobErode.odb,Step-1,Increment     10: Step Time =,    100.0,"TUBE-1",          4467,   5.87785E-03,   8.09017E-03,   337.500E-03,NA,NA,"",   10.0072E-03,  -867.362E-21,   338.751E-03,   7.20687E-06,       756.465
C:/ALETube/PressureUpdate/LargeStep/DeformErode/JobErode.odb,Step-1,Increment     10: Step Time =,    100.0,"TUBE-1",          4433,   7.07107E-03,   7.07107E-03,   337.500E-03,NA,NA,"",   10.0072E-03,            0.,   338.751E-03,   7.22966E-06,       758.909
C:/ALETube/PressureUpdate/LargeStep/DeformErode/JobErode.odb,Step-1,Increment     10: Step Time =,    100.0,"TUBE-1",          4631,   5.87785E-03,   8.09017E-03,   350.000E-03,NA,NA,"",   10.0075E-03,            0.,   351.249E-03,   7.47582E-06,       784.681
C:/ALETube/PressureUpdate/LargeStep/DeformErode/JobErode.odb,Step-1,Increment     10: Step Time =,    100.0,"TUBE-1",          4597,   7.07107E-03,   7.07107E-03,   350.000E-03,NA,NA,"",   10.0075E-03,            0.,   351.249E-03,   7.49946E-06,       787.215
C:/ALETube/PressureUpdate/LargeStep/DeformErode/JobErode.odb,Step-1,Increment     10: Step Time =,    100.0,"TUBE-1",          4795,   5.87785E-03,   8.09017E-03,   362.500E-03,NA,NA,"",   10.0077E-03,            0.,   363.746E-03,   7.74475E-06,       812.894
C:/ALETube/PressureUpdate/LargeStep/DeformErode/JobErode.odb,Step-1,Increment     10: Step Time =,    100.0,"TUBE-1",          4761,   7.07107E-03,   7.07107E-03,   362.500E-03,NA,NA,"",   10.0078E-03,            0.,   363.746E-03,   7.76923E-06,       815.518
C:/ALETube/PressureUpdate/LargeStep/DeformErode/JobErode.odb,Step-1,Increment     10: Step Time =,    100.0,"TUBE-1",          4925,   7.07107E-03,   7.07107E-03,      375.E-03,NA,NA,"",   10.0080E-03,            0.,   376.243E-03,   8.03897E-06,       843.817
C:/ALETube/PressureUpdate/LargeStep/DeformErode/JobErode.odb,Step-1,Increment     10: Step Time =,    100.0,"TUBE-1",          4959,   5.87785E-03,   8.09017E-03,      375.E-03,NA,NA,"",   10.0080E-03,  -867.362E-21,   376.243E-03,   8.01365E-06,       841.102
C:/ALETube/PressureUpdate/LargeStep/DeformErode/JobErode.odb,Step-1,Increment     10: Step Time =,    100.0,"TUBE-1",          5123,   5.87785E-03,   8.09017E-03,   387.500E-03,NA,NA,"",   10.0083E-03,            0.,   388.740E-03,   8.28253E-06,       869.308
C:/ALETube/PressureUpdate/LargeStep/DeformErode/JobErode.odb,Step-1,Increment     10: Step Time =,    100.0,"TUBE-1",          5089,   7.07107E-03,   7.07107E-03,   387.500E-03,NA,NA,"",   10.0083E-03,            0.,   388.740E-03,   8.30869E-06,       872.113
C:/ALETube/PressureUpdate/LargeStep/DeformErode/JobErode.odb,Step-1,Increment     10: Step Time =,    100.0,"TUBE-1",          5287,   5.87785E-03,   8.09017E-03,   400.000E-03,NA,NA,"",   10.0086E-03,   867.362E-21,   401.237E-03,   8.55139E-06,       897.510
C:/ALETube/PressureUpdate/LargeStep/DeformErode/JobErode.odb,Step-1,Increment     10: Step Time =,    100.0,"TUBE-1",          5253,   7.07107E-03,   7.07107E-03,   400.000E-03,NA,NA,"",   10.0086E-03,            0.,   401.237E-03,   8.57839E-06,       900.405
C:/ALETube/PressureUpdate/LargeStep/DeformErode/JobErode.odb,Step-1,Increment     10: Step Time =,    100.0,"TUBE-1",          5451,   5.87785E-03,   8.09017E-03,   412.500E-03,NA,NA,"",   10.0088E-03,            0.,   413.733E-03,   8.82022E-06,       925.708
C:/ALETube/PressureUpdate/LargeStep/DeformErode/JobErode.odb,Step-1,Increment     10: Step Time =,    100.0,"TUBE-1",          5417,   7.07107E-03,   7.07107E-03,   412.500E-03,NA,NA,"",   10.0088E-03,            0.,   413.733E-03,   8.84806E-06,       928.694
C:/ALETube/PressureUpdate/LargeStep/DeformErode/JobErode.odb,Step-1,Increment     10: Step Time =,    100.0,"TUBE-1",          5615,   5.87785E-03,   8.09017E-03,   425.000E-03,NA,NA,"",   10.0091E-03,   867.362E-21,   426.230E-03,   9.08903E-06,       953.903
C:/ALETube/PressureUpdate/LargeStep/DeformErode/JobErode.odb,Step-1,Increment     10: Step Time =,    100.0,"TUBE-1",          5581,   7.07107E-03,   7.07107E-03,   425.000E-03,NA,NA,"",   10.0091E-03,            0.,   426.230E-03,   9.11771E-06,       956.979
C:/ALETube/PressureUpdate/LargeStep/DeformErode/JobErode.odb,Step-1,Increment     10: Step Time =,    100.0,"TUBE-1",          5745,   7.07107E-03,   7.07107E-03,     437.5E-03,NA,NA,"",   10.0094E-03,            0.,   438.726E-03,   9.38733E-06,       985.261
C:/ALETube/PressureUpdate/LargeStep/DeformErode/JobErode.odb,Step-1,Increment     10: Step Time =,    100.0,"TUBE-1",          5779,   5.87785E-03,   8.09017E-03,     437.5E-03,NA,NA,"",   10.0094E-03,            0.,   438.726E-03,   9.35781E-06,       982.095
C:/ALETube/PressureUpdate/LargeStep/DeformErode/JobErode.odb,Step-1,Increment     10: Step Time =,    100.0,"TUBE-1",          5943,   5.87785E-03,   8.09017E-03,   450.000E-03,NA,NA,"",   10.0096E-03,  -867.362E-21,   451.223E-03,   9.62657E-06,   1.01028E+03
C:/ALETube/PressureUpdate/LargeStep/DeformErode/JobErode.odb,Step-1,Increment     10: Step Time =,    100.0,"TUBE-1",          5909,   7.07107E-03,   7.07107E-03,   450.000E-03,NA,NA,"",   10.0097E-03,            0.,   451.223E-03,   9.65693E-06,   1.01354E+03
C:/ALETube/PressureUpdate/LargeStep/DeformErode/JobErode.odb,Step-1,Increment     10: Step Time =,    100.0,"TUBE-1",          6107,   5.87785E-03,   8.09017E-03,   462.500E-03,NA,NA,"",   10.0099E-03,            0.,   463.719E-03,   9.89530E-06,   1.03847E+03
C:/ALETube/PressureUpdate/LargeStep/DeformErode/JobErode.odb,Step-1,Increment     10: Step Time =,    100.0,"TUBE-1",          6073,   7.07107E-03,   7.07107E-03,   462.500E-03,NA,NA,"",   10.0099E-03,            0.,   463.719E-03,   9.92651E-06,   1.04181E+03
C:/ALETube/PressureUpdate/LargeStep/DeformErode/JobErode.odb,Step-1,Increment     10: Step Time =,    100.0,"TUBE-1",          6271,   5.87785E-03,   8.09017E-03,   475.000E-03,NA,NA,"",   10.0102E-03,   867.362E-21,   476.215E-03,   10.1640E-06,   1.06665E+03
C:/ALETube/PressureUpdate/LargeStep/DeformErode/JobErode.odb,Step-1,Increment     10: Step Time =,    100.0,"TUBE-1",          6237,   7.07107E-03,   7.07107E-03,   475.000E-03,NA,NA,"",   10.0102E-03,            0.,   476.215E-03,   10.1961E-06,   1.07008E+03
C:/ALETube/PressureUpdate/LargeStep/DeformErode/JobErode.odb,Step-1,Increment     10: Step Time =,    100.0,"TUBE-1",          6435,   5.87785E-03,   8.09017E-03,   487.500E-03,NA,NA,"",   10.0104E-03,  -867.362E-21,   488.711E-03,   10.4327E-06,   1.09483E+03
C:/ALETube/PressureUpdate/LargeStep/DeformErode/JobErode.odb,Step-1,Increment     10: Step Time =,    100.0,"TUBE-1",          6401,   7.07107E-03,   7.07107E-03,   487.500E-03,NA,NA,"",   10.0105E-03,            0.,   488.711E-03,   10.4656E-06,   1.09835E+03
C:/ALETube/PressureUpdate/LargeStep/DeformErode/JobErode.odb,Step-1,Increment     10: Step Time =,    100.0,"TUBE-1",          6565,   7.07107E-03,   7.07107E-03,      500.E-03,NA,NA,"",   10.0107E-03,            0.,   501.207E-03,   10.7351E-06,   1.12662E+03
C:/ALETube/PressureUpdate/LargeStep/DeformErode/JobErode.odb,Step-1,Increment     10: Step Time =,    100.0,"TUBE-1",          6599,   5.87785E-03,   8.09017E-03,      500.E-03,NA,NA,"",   10.0107E-03,   867.362E-21,   501.207E-03,   10.7014E-06,   1.12300E+03
C:/ALETube/PressureUpdate/LargeStep/DeformErode/JobErode.odb,Step-1,Increment     10: Step Time =,    100.0,"TUBE-1",          6763,   5.87785E-03,   8.09017E-03,   512.500E-03,NA,NA,"",   10.0110E-03,            0.,   513.703E-03,   10.9700E-06,   1.15117E+03
C:/ALETube/PressureUpdate/LargeStep/DeformErode/JobErode.odb,Step-1,Increment     10: Step Time =,    100.0,"TUBE-1",          6729,   7.07107E-03,   7.07107E-03,   512.500E-03,NA,NA,"",   10.0110E-03,            0.,   513.703E-03,   11.0046E-06,   1.15488E+03
C:/ALETube/PressureUpdate/LargeStep/DeformErode/JobErode.odb,Step-1,Increment     10: Step Time =,    100.0,"TUBE-1",          6927,   5.87785E-03,   8.09017E-03,   525.000E-03,NA,NA,"",   10.0112E-03,            0.,   526.199E-03,   11.2386E-06,   1.17934E+03
C:/ALETube/PressureUpdate/LargeStep/DeformErode/JobErode.odb,Step-1,Increment     10: Step Time =,    100.0,"TUBE-1",          6893,   7.07107E-03,   7.07107E-03,   525.000E-03,NA,NA,"",   10.0113E-03,            0.,   526.199E-03,   11.2740E-06,   1.18313E+03
C:/ALETube/PressureUpdate/LargeStep/DeformErode/JobErode.odb,Step-1,Increment     10: Step Time =,    100.0,"TUBE-1",          7091,   5.87785E-03,   8.09017E-03,   537.500E-03,NA,NA,"",   10.0115E-03,            0.,   538.695E-03,   11.5072E-06,   1.20750E+03
C:/ALETube/PressureUpdate/LargeStep/DeformErode/JobErode.odb,Step-1,Increment     10: Step Time =,    100.0,"TUBE-1",          7057,   7.07107E-03,   7.07107E-03,   537.500E-03,NA,NA,"",   10.0115E-03,            0.,   538.695E-03,   11.5435E-06,   1.21139E+03
C:/ALETube/PressureUpdate/LargeStep/DeformErode/JobErode.odb,Step-1,Increment     10: Step Time =,    100.0,"TUBE-1",          7255,   5.87785E-03,   8.09017E-03,   550.000E-03,NA,NA,"",   10.0118E-03,            0.,   551.190E-03,   11.7758E-06,   1.23566E+03
C:/ALETube/PressureUpdate/LargeStep/DeformErode/JobErode.odb,Step-1,Increment     10: Step Time =,    100.0,"TUBE-1",          7221,   7.07107E-03,   7.07107E-03,   550.000E-03,NA,NA,"",   10.0118E-03,            0.,   551.190E-03,   11.8129E-06,   1.23964E+03
C:/ALETube/PressureUpdate/LargeStep/DeformErode/JobErode.odb,Step-1,Increment     10: Step Time =,    100.0,"TUBE-1",          7385,   7.07107E-03,   7.07107E-03,     562.5E-03,NA,NA,"",   10.0121E-03,            0.,   563.686E-03,   12.0823E-06,   1.26788E+03
C:/ALETube/PressureUpdate/LargeStep/DeformErode/JobErode.odb,Step-1,Increment     10: Step Time =,    100.0,"TUBE-1",          7419,   5.87785E-03,   8.09017E-03,     562.5E-03,NA,NA,"",   10.0120E-03,  -867.362E-21,   563.686E-03,   12.0443E-06,   1.26382E+03
C:/ALETube/PressureUpdate/LargeStep/DeformErode/JobErode.odb,Step-1,Increment     10: Step Time =,    100.0,"TUBE-1",          7583,   5.87785E-03,   8.09017E-03,   575.000E-03,NA,NA,"",   10.0123E-03,            0.,   576.181E-03,   12.3129E-06,   1.29197E+03
C:/ALETube/PressureUpdate/LargeStep/DeformErode/JobErode.odb,Step-1,Increment     10: Step Time =,    100.0,"TUBE-1",          7549,   7.07107E-03,   7.07107E-03,   575.000E-03,NA,NA,"",   10.0124E-03,            0.,   576.181E-03,   12.3516E-06,   1.29613E+03
C:/ALETube/PressureUpdate/LargeStep/DeformErode/JobErode.odb,Step-1,Increment     10: Step Time =,    100.0,"TUBE-1",          7747,   5.87785E-03,   8.09017E-03,   587.500E-03,NA,NA,"",   10.0126E-03,            0.,   588.677E-03,   12.5814E-06,   1.32012E+03
C:/ALETube/PressureUpdate/LargeStep/DeformErode/JobErode.odb,Step-1,Increment     10: Step Time =,    100.0,"TUBE-1",          7713,   7.07107E-03,   7.07107E-03,   587.500E-03,NA,NA,"",   10.0126E-03,            0.,   588.677E-03,   12.6210E-06,   1.32437E+03
C:/ALETube/PressureUpdate/LargeStep/DeformErode/JobErode.odb,Step-1,Increment     10: Step Time =,    100.0,"TUBE-1",          7911,   5.87785E-03,   8.09017E-03,   600.000E-03,NA,NA,"",   10.0129E-03,            0.,   601.172E-03,   12.8498E-06,   1.34827E+03
C:/ALETube/PressureUpdate/LargeStep/DeformErode/JobErode.odb,Step-1,Increment     10: Step Time =,    100.0,"TUBE-1",          7877,   7.07107E-03,   7.07107E-03,   600.000E-03,NA,NA,"",   10.0129E-03,            0.,   601.172E-03,   12.8903E-06,   1.35260E+03
C:/ALETube/PressureUpdate/LargeStep/DeformErode/JobErode.odb,Step-1,Increment     10: Step Time =,    100.0,"TUBE-1",          8075,   5.87785E-03,   8.09017E-03,   612.500E-03,NA,NA,"",   10.0131E-03,            0.,   613.667E-03,   13.1183E-06,   1.37641E+03
C:/ALETube/PressureUpdate/LargeStep/DeformErode/JobErode.odb,Step-1,Increment     10: Step Time =,    100.0,"TUBE-1",          8041,   7.07107E-03,   7.07107E-03,   612.500E-03,NA,NA,"",   10.0132E-03,            0.,   613.667E-03,   13.1596E-06,   1.38084E+03
C:/ALETube/PressureUpdate/LargeStep/DeformErode/JobErode.odb,Step-1,Increment     10: Step Time =,    100.0,"TUBE-1",          8205,   7.07107E-03,   7.07107E-03,      625.E-03,NA,NA,"",   10.0134E-03,            0.,   626.162E-03,   13.4288E-06,   1.40907E+03
C:/ALETube/PressureUpdate/LargeStep/DeformErode/JobErode.odb,Step-1,Increment     10: Step Time =,    100.0,"TUBE-1",          8239,   5.87785E-03,   8.09017E-03,      625.E-03,NA,NA,"",   10.0134E-03,            0.,   626.162E-03,   13.3867E-06,   1.40455E+03
C:/ALETube/PressureUpdate/LargeStep/DeformErode/JobErode.odb,Step-1,Increment     10: Step Time =,    100.0,"TUBE-1",          8403,   5.87785E-03,   8.09017E-03,   637.500E-03,NA,NA,"",   10.0137E-03,  -867.362E-21,   638.657E-03,   13.6551E-06,   1.43269E+03
C:/ALETube/PressureUpdate/LargeStep/DeformErode/JobErode.odb,Step-1,Increment     10: Step Time =,    100.0,"TUBE-1",          8369,   7.07107E-03,   7.07107E-03,   637.500E-03,NA,NA,"",   10.0137E-03,            0.,   638.657E-03,   13.6981E-06,   1.43729E+03
C:/ALETube/PressureUpdate/LargeStep/DeformErode/JobErode.odb,Step-1,Increment     10: Step Time =,    100.0,"TUBE-1",          8567,   5.87785E-03,   8.09017E-03,   650.000E-03,NA,NA,"",   10.0139E-03,            0.,   651.151E-03,   13.9235E-06,   1.46082E+03
C:/ALETube/PressureUpdate/LargeStep/DeformErode/JobErode.odb,Step-1,Increment     10: Step Time =,    100.0,"TUBE-1",          8533,   7.07107E-03,   7.07107E-03,   650.000E-03,NA,NA,"",   10.0140E-03,            0.,   651.151E-03,   13.9673E-06,   1.46551E+03
C:/ALETube/PressureUpdate/LargeStep/DeformErode/JobErode.odb,Step-1,Increment     10: Step Time =,    100.0,"TUBE-1",          8731,   5.87785E-03,   8.09017E-03,   662.500E-03,NA,NA,"",   10.0142E-03,  -867.362E-21,   663.646E-03,   14.1919E-06,   1.48895E+03
C:/ALETube/PressureUpdate/LargeStep/DeformErode/JobErode.odb,Step-1,Increment     10: Step Time =,    100.0,"TUBE-1",          8697,   7.07107E-03,   7.07107E-03,   662.500E-03,NA,NA,"",   10.0142E-03,            0.,   663.646E-03,   14.2365E-06,   1.49373E+03
C:/ALETube/PressureUpdate/LargeStep/DeformErode/JobErode.odb,Step-1,Increment     10: Step Time =,    100.0,"TUBE-1",          8895,   5.87785E-03,   8.09017E-03,   675.000E-03,NA,NA,"",   10.0145E-03,            0.,   676.141E-03,   14.4602E-06,   1.51708E+03
C:/ALETube/PressureUpdate/LargeStep/DeformErode/JobErode.odb,Step-1,Increment     10: Step Time =,    100.0,"TUBE-1",          8861,   7.07107E-03,   7.07107E-03,   675.000E-03,NA,NA,"",   10.0145E-03,            0.,   676.141E-03,   14.5056E-06,   1.52195E+03
C:/ALETube/PressureUpdate/LargeStep/DeformErode/JobErode.odb,Step-1,Increment     10: Step Time =,    100.0,"TUBE-1",          9025,   7.07107E-03,   7.07107E-03,     687.5E-03,NA,NA,"",   10.0148E-03,            0.,   688.635E-03,   14.7748E-06,   1.55016E+03
C:/ALETube/PressureUpdate/LargeStep/DeformErode/JobErode.odb,Step-1,Increment     10: Step Time =,    100.0,"TUBE-1",          9059,   5.87785E-03,   8.09017E-03,     687.5E-03,NA,NA,"",   10.0147E-03,            0.,   688.635E-03,   14.7285E-06,   1.54520E+03
C:/ALETube/PressureUpdate/LargeStep/DeformErode/JobErode.odb,Step-1,Increment     10: Step Time =,    100.0,"TUBE-1",          9223,   5.87785E-03,   8.09017E-03,   700.000E-03,NA,NA,"",   10.0150E-03,            0.,   701.130E-03,   14.9968E-06,   1.57332E+03
C:/ALETube/PressureUpdate/LargeStep/DeformErode/JobErode.odb,Step-1,Increment     10: Step Time =,    100.0,"TUBE-1",          9189,   7.07107E-03,   7.07107E-03,   700.000E-03,NA,NA,"",   10.0150E-03,            0.,   701.130E-03,   15.0439E-06,   1.57837E+03
C:/ALETube/PressureUpdate/LargeStep/DeformErode/JobErode.odb,Step-1,Increment     10: Step Time =,    100.0,"TUBE-1",          9387,   5.87785E-03,   8.09017E-03,   712.500E-03,NA,NA,"",   10.0153E-03,   867.362E-21,   713.624E-03,   15.2651E-06,   1.60143E+03
C:/ALETube/PressureUpdate/LargeStep/DeformErode/JobErode.odb,Step-1,Increment     10: Step Time =,    100.0,"TUBE-1",          9353,   7.07107E-03,   7.07107E-03,   712.500E-03,NA,NA,"",   10.0153E-03,            0.,   713.624E-03,   15.3130E-06,   1.60657E+03
C:/ALETube/PressureUpdate/LargeStep/DeformErode/JobErode.odb,Step-1,Increment     10: Step Time =,    100.0,"TUBE-1",          9551,   5.87785E-03,   8.09017E-03,   725.000E-03,NA,NA,"",   10.0155E-03,   867.362E-21,   726.118E-03,   15.5333E-06,   1.62954E+03
C:/ALETube/PressureUpdate/LargeStep/DeformErode/JobErode.odb,Step-1,Increment     10: Step Time =,    100.0,"TUBE-1",          9517,   7.07107E-03,   7.07107E-03,   725.000E-03,NA,NA,"",   10.0156E-03,            0.,   726.118E-03,   15.5821E-06,   1.63477E+03
C:/ALETube/PressureUpdate/LargeStep/DeformErode/JobErode.odb,Step-1,Increment     10: Step Time =,    100.0,"TUBE-1",          9715,   5.87785E-03,   8.09017E-03,   737.500E-03,NA,NA,"",   10.0158E-03,  -867.362E-21,   738.612E-03,   15.8015E-06,   1.65765E+03
C:/ALETube/PressureUpdate/LargeStep/DeformErode/JobErode.odb,Step-1,Increment     10: Step Time =,    100.0,"TUBE-1",          9681,   7.07107E-03,   7.07107E-03,   737.500E-03,NA,NA,"",   10.0159E-03,            0.,   738.612E-03,   15.8511E-06,   1.66297E+03
C:/ALETube/PressureUpdate/LargeStep/DeformErode/JobErode.odb,Step-1,Increment     10: Step Time =,    100.0,"TUBE-1",          9845,   7.07107E-03,   7.07107E-03,      750.E-03,NA,NA,"",   10.0161E-03,            0.,   751.106E-03,   16.1202E-06,   1.69117E+03
C:/ALETube/PressureUpdate/LargeStep/DeformErode/JobErode.odb,Step-1,Increment     10: Step Time =,    100.0,"TUBE-1",          9879,   5.87785E-03,   8.09017E-03,      750.E-03,NA,NA,"",   10.0161E-03,  -867.362E-21,   751.106E-03,   16.0697E-06,   1.68576E+03
C:/ALETube/PressureUpdate/LargeStep/DeformErode/JobErode.odb,Step-1,Increment     10: Step Time =,    100.0,"TUBE-1",         10043,   5.87785E-03,   8.09017E-03,   762.500E-03,NA,NA,"",   10.0163E-03,            0.,   763.600E-03,   16.3379E-06,   1.71386E+03
C:/ALETube/PressureUpdate/LargeStep/DeformErode/JobErode.odb,Step-1,Increment     10: Step Time =,    100.0,"TUBE-1",         10009,   7.07107E-03,   7.07107E-03,   762.500E-03,NA,NA,"",   10.0164E-03,            0.,   763.600E-03,   16.3892E-06,   1.71936E+03
C:/ALETube/PressureUpdate/LargeStep/DeformErode/JobErode.odb,Step-1,Increment     10: Step Time =,    100.0,"TUBE-1",         10207,   5.87785E-03,   8.09017E-03,   775.000E-03,NA,NA,"",   10.0166E-03,            0.,   776.094E-03,   16.6060E-06,   1.74196E+03
C:/ALETube/PressureUpdate/LargeStep/DeformErode/JobErode.odb,Step-1,Increment     10: Step Time =,    100.0,"TUBE-1",         10173,   7.07107E-03,   7.07107E-03,   775.000E-03,NA,NA,"",   10.0167E-03,            0.,   776.094E-03,   16.6581E-06,   1.74754E+03
C:/ALETube/PressureUpdate/LargeStep/DeformErode/JobErode.odb,Step-1,Increment     10: Step Time =,    100.0,"TUBE-1",         10371,   5.87785E-03,   8.09017E-03,   787.500E-03,NA,NA,"",   10.0169E-03,            0.,   788.588E-03,   16.8741E-06,   1.77005E+03
C:/ALETube/PressureUpdate/LargeStep/DeformErode/JobErode.odb,Step-1,Increment     10: Step Time =,    100.0,"TUBE-1",         10337,   7.07107E-03,   7.07107E-03,   787.500E-03,NA,NA,"",   10.0169E-03,            0.,   788.588E-03,   16.9271E-06,   1.77573E+03
C:/ALETube/PressureUpdate/LargeStep/DeformErode/JobErode.odb,Step-1,Increment     10: Step Time =,    100.0,"TUBE-1",         10535,   5.87785E-03,   8.09017E-03,   800.000E-03,NA,NA,"",   10.0171E-03,            0.,   801.081E-03,   17.1422E-06,   1.79814E+03
C:/ALETube/PressureUpdate/LargeStep/DeformErode/JobErode.odb,Step-1,Increment     10: Step Time =,    100.0,"TUBE-1",         10501,   7.07107E-03,   7.07107E-03,   800.000E-03,NA,NA,"",   10.0172E-03,            0.,   801.081E-03,   17.1960E-06,   1.80391E+03
C:/ALETube/PressureUpdate/LargeStep/DeformErode/JobErode.odb,Step-1,Increment     10: Step Time =,    100.0,"TUBE-1",         10665,   7.07107E-03,   7.07107E-03,     812.5E-03,NA,NA,"",   10.0175E-03,            0.,   813.575E-03,   17.4649E-06,   1.83209E+03
C:/ALETube/PressureUpdate/LargeStep/DeformErode/JobErode.odb,Step-1,Increment     10: Step Time =,    100.0,"TUBE-1",         10699,   5.87785E-03,   8.09017E-03,     812.5E-03,NA,NA,"",   10.0174E-03,            0.,   813.575E-03,   17.4103E-06,   1.82623E+03
C:/ALETube/PressureUpdate/LargeStep/DeformErode/JobErode.odb,Step-1,Increment     10: Step Time =,    100.0,"TUBE-1",         10863,   5.87785E-03,   8.09017E-03,   825.000E-03,NA,NA,"",   10.0177E-03,  -867.362E-21,   826.068E-03,   17.6784E-06,   1.85432E+03
C:/ALETube/PressureUpdate/LargeStep/DeformErode/JobErode.odb,Step-1,Increment     10: Step Time =,    100.0,"TUBE-1",         10829,   7.07107E-03,   7.07107E-03,   825.000E-03,NA,NA,"",   10.0177E-03,            0.,   826.068E-03,   17.7338E-06,   1.86026E+03
C:/ALETube/PressureUpdate/LargeStep/DeformErode/JobErode.odb,Step-1,Increment     10: Step Time =,    100.0,"TUBE-1",         11027,   5.87785E-03,   8.09017E-03,   837.500E-03,NA,NA,"",   10.0179E-03,            0.,   838.561E-03,   17.9464E-06,   1.88240E+03
C:/ALETube/PressureUpdate/LargeStep/DeformErode/JobErode.odb,Step-1,Increment     10: Step Time =,    100.0,"TUBE-1",         10993,   7.07107E-03,   7.07107E-03,   837.500E-03,NA,NA,"",   10.0180E-03,            0.,   838.561E-03,   18.0027E-06,   1.88843E+03
C:/ALETube/PressureUpdate/LargeStep/DeformErode/JobErode.odb,Step-1,Increment     10: Step Time =,    100.0,"TUBE-1",         11191,   5.87785E-03,   8.09017E-03,   850.000E-03,NA,NA,"",   10.0182E-03,  -867.362E-21,   851.054E-03,   18.2144E-06,   1.91047E+03
C:/ALETube/PressureUpdate/LargeStep/DeformErode/JobErode.odb,Step-1,Increment     10: Step Time =,    100.0,"TUBE-1",         11157,   7.07107E-03,   7.07107E-03,   850.000E-03,NA,NA,"",   10.0183E-03,            0.,   851.054E-03,   18.2715E-06,   1.91660E+03
C:/ALETube/PressureUpdate/LargeStep/DeformErode/JobErode.odb,Step-1,Increment     10: Step Time =,    100.0,"TUBE-1",         11355,   5.87785E-03,   8.09017E-03,   862.500E-03,NA,NA,"",   10.0185E-03,  -867.362E-21,   863.548E-03,   18.4824E-06,   1.93855E+03
C:/ALETube/PressureUpdate/LargeStep/DeformErode/JobErode.odb,Step-1,Increment     10: Step Time =,    100.0,"TUBE-1",         11321,   7.07107E-03,   7.07107E-03,   862.500E-03,NA,NA,"",   10.0185E-03,            0.,   863.548E-03,   18.5403E-06,   1.94476E+03
C:/ALETube/PressureUpdate/LargeStep/DeformErode/JobErode.odb,Step-1,Increment     10: Step Time =,    100.0,"TUBE-1",         11485,   7.07107E-03,   7.07107E-03,      875.E-03,NA,NA,"",   10.0188E-03,            0.,   876.040E-03,   18.8091E-06,   1.97292E+03
C:/ALETube/PressureUpdate/LargeStep/DeformErode/JobErode.odb,Step-1,Increment     10: Step Time =,    100.0,"TUBE-1",         11519,   5.87785E-03,   8.09017E-03,      875.E-03,NA,NA,"",   10.0188E-03,   867.362E-21,   876.040E-03,   18.7503E-06,   1.96662E+03
C:/ALETube/PressureUpdate/LargeStep/DeformErode/JobErode.odb,Step-1,Increment     10: Step Time =,    100.0,"TUBE-1",         11683,   5.87785E-03,   8.09017E-03,   887.500E-03,NA,NA,"",   10.0190E-03,            0.,   888.533E-03,   19.0183E-06,   1.99469E+03
C:/ALETube/PressureUpdate/LargeStep/DeformErode/JobErode.odb,Step-1,Increment     10: Step Time =,    100.0,"TUBE-1",         11649,   7.07107E-03,   7.07107E-03,   887.500E-03,NA,NA,"",   10.0191E-03,            0.,   888.533E-03,   19.0779E-06,   2.00108E+03
C:/ALETube/PressureUpdate/LargeStep/DeformErode/JobErode.odb,Step-1,Increment     10: Step Time =,    100.0,"TUBE-1",         11847,   5.87785E-03,   8.09017E-03,   900.000E-03,NA,NA,"",   10.0193E-03,            0.,   901.026E-03,   19.2862E-06,   2.02275E+03
C:/ALETube/PressureUpdate/LargeStep/DeformErode/JobErode.odb,Step-1,Increment     10: Step Time =,    100.0,"TUBE-1",         11813,   7.07107E-03,   7.07107E-03,   900.000E-03,NA,NA,"",   10.0193E-03,            0.,   901.026E-03,   19.3466E-06,   2.02923E+03
C:/ALETube/PressureUpdate/LargeStep/DeformErode/JobErode.odb,Step-1,Increment     10: Step Time =,    100.0,"TUBE-1",         12011,   5.87785E-03,   8.09017E-03,   912.500E-03,NA,NA,"",   10.0196E-03,            0.,   913.519E-03,   19.5541E-06,   2.05081E+03
C:/ALETube/PressureUpdate/LargeStep/DeformErode/JobErode.odb,Step-1,Increment     10: Step Time =,    100.0,"TUBE-1",         11977,   7.07107E-03,   7.07107E-03,   912.500E-03,NA,NA,"",   10.0196E-03,            0.,   913.519E-03,   19.6153E-06,   2.05738E+03
C:/ALETube/PressureUpdate/LargeStep/DeformErode/JobErode.odb,Step-1,Increment     10: Step Time =,    100.0,"TUBE-1",         12175,   5.87785E-03,   8.09017E-03,   925.000E-03,NA,NA,"",   10.0198E-03,            0.,   926.011E-03,   19.8219E-06,   2.07887E+03
C:/ALETube/PressureUpdate/LargeStep/DeformErode/JobErode.odb,Step-1,Increment     10: Step Time =,    100.0,"TUBE-1",         12141,   7.07107E-03,   7.07107E-03,   925.000E-03,NA,NA,"",   10.0199E-03,            0.,   926.011E-03,   19.8840E-06,   2.08552E+03
C:/ALETube/PressureUpdate/LargeStep/DeformErode/JobErode.odb,Step-1,Increment     10: Step Time =,    100.0,"TUBE-1",         12305,   7.07107E-03,   7.07107E-03,     937.5E-03,NA,NA,"",   10.0202E-03,            0.,   938.504E-03,   20.1527E-06,   2.11367E+03
C:/ALETube/PressureUpdate/LargeStep/DeformErode/JobErode.odb,Step-1,Increment     10: Step Time =,    100.0,"TUBE-1",         12339,   5.87785E-03,   8.09017E-03,     937.5E-03,NA,NA,"",   10.0201E-03,            0.,   938.504E-03,   20.0898E-06,   2.10692E+03
C:/ALETube/PressureUpdate/LargeStep/DeformErode/JobErode.odb,Step-1,Increment     10: Step Time =,    100.0,"TUBE-1",         12503,   5.87785E-03,   8.09017E-03,   950.000E-03,NA,NA,"",   10.0204E-03,  -867.362E-21,   950.996E-03,   20.3576E-06,   2.13497E+03
C:/ALETube/PressureUpdate/LargeStep/DeformErode/JobErode.odb,Step-1,Increment     10: Step Time =,    100.0,"TUBE-1",         12469,   7.07107E-03,   7.07107E-03,   950.000E-03,NA,NA,"",   10.0204E-03,            0.,   950.996E-03,   20.4214E-06,   2.14181E+03
C:/ALETube/PressureUpdate/LargeStep/DeformErode/JobErode.odb,Step-1,Increment     10: Step Time =,    100.0,"TUBE-1",         12667,   5.87785E-03,   8.09017E-03,   962.500E-03,NA,NA,"",   10.0206E-03,   867.362E-21,   963.488E-03,   20.6254E-06,   2.16302E+03
C:/ALETube/PressureUpdate/LargeStep/DeformErode/JobErode.odb,Step-1,Increment     10: Step Time =,    100.0,"TUBE-1",         12633,   7.07107E-03,   7.07107E-03,   962.500E-03,NA,NA,"",   10.0207E-03,            0.,   963.488E-03,   20.6900E-06,   2.16994E+03
C:/ALETube/PressureUpdate/LargeStep/DeformErode/JobErode.odb,Step-1,Increment     10: Step Time =,    100.0,"TUBE-1",         12831,   5.87785E-03,   8.09017E-03,   975.000E-03,NA,NA,"",   10.0209E-03,            0.,   975.981E-03,   20.8932E-06,   2.19106E+03
C:/ALETube/PressureUpdate/LargeStep/DeformErode/JobErode.odb,Step-1,Increment     10: Step Time =,    100.0,"TUBE-1",         12797,   7.07107E-03,   7.07107E-03,   975.000E-03,NA,NA,"",   10.0210E-03,            0.,   975.981E-03,   20.9586E-06,   2.19807E+03
C:/ALETube/PressureUpdate/LargeStep/DeformErode/JobErode.odb,Step-1,Increment     10: Step Time =,    100.0,"TUBE-1",         12995,   5.87785E-03,   8.09017E-03,   987.500E-03,NA,NA,"",   10.0212E-03,            0.,   988.473E-03,   21.1609E-06,   2.21910E+03
C:/ALETube/PressureUpdate/LargeStep/DeformErode/JobErode.odb,Step-1,Increment     10: Step Time =,    100.0,"TUBE-1",         12961,   7.07107E-03,   7.07107E-03,   987.500E-03,NA,NA,"",   10.0212E-03,            0.,   988.473E-03,   21.2272E-06,   2.22620E+03
C:/ALETube/PressureUpdate/LargeStep/DeformErode/JobErode.odb,Step-1,Increment     10: Step Time =,    100.0,"TUBE-1",         13125,   7.07107E-03,   7.07107E-03,            1.,NA,NA,"",   10.0215E-03,            0.,       1.00096,   21.4957E-06,   2.25433E+03
C:/ALETube/PressureUpdate/LargeStep/DeformErode/JobErode.odb,Step-1,Increment     10: Step Time =,    100.0,"TUBE-1",         13159,   5.87785E-03,   8.09017E-03,            1.,NA,NA,"",   10.0214E-03,            0.,       1.00096,   21.4286E-06,   2.24714E+03
C:/ALETube/PressureUpdate/LargeStep/DeformErode/JobErode.odb,Step-1,Increment     10: Step Time =,    100.0,"TUBE-1",         13323,   5.87785E-03,   8.09017E-03,       1.01250,NA,NA,"",   10.0217E-03,  -867.362E-21,       1.01346,   21.6963E-06,   2.27517E+03
C:/ALETube/PressureUpdate/LargeStep/DeformErode/JobErode.odb,Step-1,Increment     10: Step Time =,    100.0,"TUBE-1",         13289,   7.07107E-03,   7.07107E-03,       1.01250,NA,NA,"",   10.0218E-03,            0.,       1.01346,   21.7642E-06,   2.28245E+03
C:/ALETube/PressureUpdate/LargeStep/DeformErode/JobErode.odb,Step-1,Increment     10: Step Time =,    100.0,"TUBE-1",         13487,   5.87785E-03,   8.09017E-03,       1.02500,NA,NA,"",   10.0220E-03,            0.,       1.02595,   21.9640E-06,   2.30320E+03
C:/ALETube/PressureUpdate/LargeStep/DeformErode/JobErode.odb,Step-1,Increment     10: Step Time =,    100.0,"TUBE-1",         13453,   7.07107E-03,   7.07107E-03,       1.02500,NA,NA,"",   10.0220E-03,            0.,       1.02595,   22.0327E-06,   2.31057E+03
C:/ALETube/PressureUpdate/LargeStep/DeformErode/JobErode.odb,Step-1,Increment     10: Step Time =,    100.0,"TUBE-1",         13617,   7.07107E-03,   7.07107E-03,       1.03750,NA,NA,"",   10.0223E-03,            0.,       1.03844,   22.3012E-06,   2.33868E+03
C:/ALETube/PressureUpdate/LargeStep/DeformErode/JobErode.odb,Step-1,Increment     10: Step Time =,    100.0,"TUBE-1",         13651,   5.87785E-03,   8.09017E-03,       1.03750,NA,NA,"",   10.0222E-03,            0.,       1.03844,   22.2317E-06,   2.33123E+03
C:/ALETube/PressureUpdate/LargeStep/DeformErode/JobErode.odb,Step-1,Increment     10: Step Time =,    100.0,"TUBE-1",         13815,   5.87785E-03,   8.09017E-03,       1.05000,NA,NA,"",   10.0225E-03,            0.,       1.05093,   22.4993E-06,   2.35925E+03
C:/ALETube/PressureUpdate/LargeStep/DeformErode/JobErode.odb,Step-1,Increment     10: Step Time =,    100.0,"TUBE-1",         13781,   7.07107E-03,   7.07107E-03,       1.05000,NA,NA,"",   10.0226E-03,            0.,       1.05093,   22.5697E-06,   2.36679E+03
C:/ALETube/PressureUpdate/LargeStep/DeformErode/JobErode.odb,Step-1,Increment     10: Step Time =,    100.0,"TUBE-1",         13979,   5.87785E-03,   8.09017E-03,        1.0625,NA,NA,"",   10.0228E-03,  -867.362E-21,       1.06342,   22.7669E-06,   2.38727E+03
C:/ALETube/PressureUpdate/LargeStep/DeformErode/JobErode.odb,Step-1,Increment     10: Step Time =,    100.0,"TUBE-1",         13945,   7.07107E-03,   7.07107E-03,        1.0625,NA,NA,"",   10.0228E-03,            0.,       1.06342,   22.8381E-06,   2.39490E+03
C:/ALETube/PressureUpdate/LargeStep/DeformErode/JobErode.odb,Step-1,Increment     10: Step Time =,    100.0,"TUBE-1",         14109,   7.07107E-03,   7.07107E-03,       1.07500,NA,NA,"",   10.0231E-03,            0.,       1.07591,   23.1065E-06,   2.42301E+03
C:/ALETube/PressureUpdate/LargeStep/DeformErode/JobErode.odb,Step-1,Increment     10: Step Time =,    100.0,"TUBE-1",         14143,   5.87785E-03,   8.09017E-03,       1.07500,NA,NA,"",   10.0230E-03,  -547.418E-12,       1.07591,   23.0345E-06,   2.41528E+03
C:/ALETube/PressureUpdate/LargeStep/DeformErode/JobErode.odb,Step-1,Increment     10: Step Time =,    100.0,"TUBE-1",         14307,   5.87785E-03,   8.09017E-03,       1.08750,NA,NA,"",   10.0233E-03,  -867.362E-21,       1.08841,   23.3021E-06,   2.44330E+03
C:/ALETube/PressureUpdate/LargeStep/DeformErode/JobErode.odb,Step-1,Increment     10: Step Time =,    100.0,"TUBE-1",         14273,   7.07107E-03,   7.07107E-03,       1.08750,NA,NA,"",   10.0234E-03,            0.,       1.08841,   23.3749E-06,   2.45111E+03
C:/ALETube/PressureUpdate/LargeStep/DeformErode/JobErode.odb,Step-1,Increment     10: Step Time =,    100.0,"TUBE-1",         14471,   5.87785E-03,   8.09017E-03,       1.10000,NA,NA,"",   10.0236E-03,            0.,       1.10090,   23.5696E-06,   2.47131E+03
C:/ALETube/PressureUpdate/LargeStep/DeformErode/JobErode.odb,Step-1,Increment     10: Step Time =,    100.0,"TUBE-1",         14437,   7.07107E-03,   7.07107E-03,       1.10000,NA,NA,"",   10.0236E-03,            0.,       1.10090,   23.6433E-06,   2.47920E+03
C:/ALETube/PressureUpdate/LargeStep/DeformErode/JobErode.odb,Step-1,Increment     10: Step Time =,    100.0,"TUBE-1",         14635,   5.87785E-03,   8.09017E-03,       1.11250,NA,NA,"",   10.0238E-03,  -867.362E-21,       1.11339,   23.8371E-06,   2.49931E+03
C:/ALETube/PressureUpdate/LargeStep/DeformErode/JobErode.odb,Step-1,Increment     10: Step Time =,    100.0,"TUBE-1",         14601,   7.07107E-03,   7.07107E-03,       1.11250,NA,NA,"",   10.0239E-03,            0.,       1.11339,   23.9116E-06,   2.50730E+03
C:/ALETube/PressureUpdate/LargeStep/DeformErode/JobErode.odb,Step-1,Increment     10: Step Time =,    100.0,"TUBE-1",         14799,   5.87785E-03,   8.09017E-03,         1.125,NA,NA,"",   10.0241E-03,            0.,       1.12588,   24.1046E-06,   2.52731E+03
C:/ALETube/PressureUpdate/LargeStep/DeformErode/JobErode.odb,Step-1,Increment     10: Step Time =,    100.0,"TUBE-1",         14765,   7.07107E-03,   7.07107E-03,         1.125,NA,NA,"",   10.0242E-03,            0.,       1.12588,   24.1799E-06,   2.53539E+03
C:/ALETube/PressureUpdate/LargeStep/DeformErode/JobErode.odb,Step-1,Increment     10: Step Time =,    100.0,"TUBE-1",         14929,   7.07107E-03,   7.07107E-03,       1.13750,NA,NA,"",   10.0244E-03,            0.,       1.13837,   24.4482E-06,   2.56348E+03
C:/ALETube/PressureUpdate/LargeStep/DeformErode/JobErode.odb,Step-1,Increment     10: Step Time =,    100.0,"TUBE-1",         14963,   5.87785E-03,   8.09017E-03,       1.13750,NA,NA,"",   10.0244E-03,            0.,       1.13837,   24.3721E-06,   2.55531E+03
C:/ALETube/PressureUpdate/LargeStep/DeformErode/JobErode.odb,Step-1,Increment     10: Step Time =,    100.0,"TUBE-1",         15127,   5.87785E-03,   8.09017E-03,       1.15000,NA,NA,"",   10.0246E-03,   867.362E-21,       1.15086,   24.6395E-06,   2.58331E+03
C:/ALETube/PressureUpdate/LargeStep/DeformErode/JobErode.odb,Step-1,Increment     10: Step Time =,    100.0,"TUBE-1",         15093,   7.07107E-03,   7.07107E-03,       1.15000,NA,NA,"",   10.0247E-03,            0.,       1.15086,   24.7165E-06,   2.59156E+03
C:/ALETube/PressureUpdate/LargeStep/DeformErode/JobErode.odb,Step-1,Increment     10: Step Time =,    100.0,"TUBE-1",         15291,   5.87785E-03,   8.09017E-03,       1.16250,NA,NA,"",   10.0249E-03,            0.,       1.16335,   24.9069E-06,   2.61130E+03
C:/ALETube/PressureUpdate/LargeStep/DeformErode/JobErode.odb,Step-1,Increment     10: Step Time =,    100.0,"TUBE-1",         15257,   7.07107E-03,   7.07107E-03,       1.16250,NA,NA,"",   10.0250E-03,            0.,       1.16335,   24.9847E-06,   2.61964E+03
C:/ALETube/PressureUpdate/LargeStep/DeformErode/JobErode.odb,Step-1,Increment     10: Step Time =,    100.0,"TUBE-1",         15455,   5.87785E-03,   8.09017E-03,       1.17500,NA,NA,"",   10.0252E-03,            0.,       1.17584,   25.1743E-06,   2.63929E+03
C:/ALETube/PressureUpdate/LargeStep/DeformErode/JobErode.odb,Step-1,Increment     10: Step Time =,    100.0,"TUBE-1",         15421,   7.07107E-03,   7.07107E-03,       1.17500,NA,NA,"",   10.0253E-03,            0.,       1.17584,   25.2530E-06,   2.64772E+03
C:/ALETube/PressureUpdate/LargeStep/DeformErode/JobErode.odb,Step-1,Increment     10: Step Time =,    100.0,"TUBE-1",         15619,   5.87785E-03,   8.09017E-03,        1.1875,NA,NA,"",   10.0254E-03,  -867.362E-21,       1.18833,   25.4417E-06,   2.66727E+03
C:/ALETube/PressureUpdate/LargeStep/DeformErode/JobErode.odb,Step-1,Increment     10: Step Time =,    100.0,"TUBE-1",         15585,   7.07107E-03,   7.07107E-03,        1.1875,NA,NA,"",   10.0255E-03,            0.,       1.18833,   25.5212E-06,   2.67579E+03
C:/ALETube/PressureUpdate/LargeStep/DeformErode/JobErode.odb,Step-1,Increment     10: Step Time =,    100.0,"TUBE-1",         15749,   7.07107E-03,   7.07107E-03,       1.20000,NA,NA,"",   10.0258E-03,            0.,       1.20082,   25.7893E-06,   2.70386E+03
C:/ALETube/PressureUpdate/LargeStep/DeformErode/JobErode.odb,Step-1,Increment     10: Step Time =,    100.0,"TUBE-1",         15783,   5.87785E-03,   8.09017E-03,       1.20000,NA,NA,"",   10.0257E-03,            0.,       1.20082,   25.7091E-06,   2.69526E+03
C:/ALETube/PressureUpdate/LargeStep/DeformErode/JobErode.odb,Step-1,Increment     10: Step Time =,    100.0,"TUBE-1",         15947,   5.87785E-03,   8.09017E-03,       1.21250,NA,NA,"",   10.0260E-03,            0.,       1.21331,   25.9764E-06,   2.72323E+03
C:/ALETube/PressureUpdate/LargeStep/DeformErode/JobErode.odb,Step-1,Increment     10: Step Time =,    100.0,"TUBE-1",         15913,   7.07107E-03,   7.07107E-03,       1.21250,NA,NA,"",   10.0261E-03,            0.,       1.21331,   26.0575E-06,   2.73193E+03
C:/ALETube/PressureUpdate/LargeStep/DeformErode/JobErode.odb,Step-1,Increment     10: Step Time =,    100.0,"TUBE-1",         16111,   5.87785E-03,   8.09017E-03,       1.22500,NA,NA,"",   10.0262E-03,  -867.362E-21,       1.22580,   26.2437E-06,   2.75121E+03
C:/ALETube/PressureUpdate/LargeStep/DeformErode/JobErode.odb,Step-1,Increment     10: Step Time =,    100.0,"TUBE-1",         16077,   7.07107E-03,   7.07107E-03,       1.22500,NA,NA,"",   10.0263E-03,            0.,       1.22580,   26.3256E-06,   2.75999E+03
C:/ALETube/PressureUpdate/LargeStep/DeformErode/JobErode.odb,Step-1,Increment     10: Step Time =,    100.0,"TUBE-1",         16275,   5.87785E-03,   8.09017E-03,       1.23750,NA,NA,"",   10.0265E-03,            0.,       1.23829,   26.5110E-06,   2.77918E+03
C:/ALETube/PressureUpdate/LargeStep/DeformErode/JobErode.odb,Step-1,Increment     10: Step Time =,    100.0,"TUBE-1",         16241,   7.07107E-03,   7.07107E-03,       1.23750,NA,NA,"",   10.0266E-03,            0.,       1.23829,   26.5937E-06,   2.78805E+03
C:/ALETube/PressureUpdate/LargeStep/DeformErode/JobErode.odb,Step-1,Increment     10: Step Time =,    100.0,"TUBE-1",         16439,   5.87785E-03,   8.09017E-03,          1.25,NA,NA,"",   10.0268E-03,  -867.362E-21,       1.25078,   26.7782E-06,   2.80715E+03
C:/ALETube/PressureUpdate/LargeStep/DeformErode/JobErode.odb,Step-1,Increment     10: Step Time =,    100.0,"TUBE-1",         16405,   7.07107E-03,   7.07107E-03,          1.25,NA,NA,"",   10.0269E-03,            0.,       1.25078,   26.8618E-06,   2.81611E+03
C:/ALETube/PressureUpdate/LargeStep/DeformErode/JobErode.odb,Step-1,Increment     10: Step Time =,    100.0,"TUBE-1",         16569,   7.07107E-03,   7.07107E-03,       1.26250,NA,NA,"",   10.0271E-03,            0.,       1.26327,   27.1299E-06,   2.84416E+03
C:/ALETube/PressureUpdate/LargeStep/DeformErode/JobErode.odb,Step-1,Increment     10: Step Time =,    100.0,"TUBE-1",         16603,   5.87785E-03,   8.09017E-03,       1.26250,NA,NA,"",   10.0270E-03,            0.,       1.26327,   27.0455E-06,   2.83511E+03
C:/ALETube/PressureUpdate/LargeStep/DeformErode/JobErode.odb,Step-1,Increment     10: Step Time =,    100.0,"TUBE-1",         16767,   5.87785E-03,   8.09017E-03,       1.27500,NA,NA,"",   10.0273E-03,            0.,       1.27576,   27.3127E-06,   2.86308E+03
C:/ALETube/PressureUpdate/LargeStep/DeformErode/JobErode.odb,Step-1,Increment     10: Step Time =,    100.0,"TUBE-1",         16733,   7.07107E-03,   7.07107E-03,       1.27500,NA,NA,"",   10.0274E-03,            0.,       1.27576,   27.3979E-06,   2.87221E+03
C:/ALETube/PressureUpdate/LargeStep/DeformErode/JobErode.odb,Step-1,Increment     10: Step Time =,    100.0,"TUBE-1",         16931,   5.87785E-03,   8.09017E-03,       1.28750,NA,NA,"",   10.0276E-03,            0.,       1.28825,   27.5799E-06,   2.89103E+03
C:/ALETube/PressureUpdate/LargeStep/DeformErode/JobErode.odb,Step-1,Increment     10: Step Time =,    100.0,"TUBE-1",         16897,   7.07107E-03,   7.07107E-03,       1.28750,NA,NA,"",   10.0277E-03,            0.,       1.28825,   27.6659E-06,   2.90025E+03
C:/ALETube/PressureUpdate/LargeStep/DeformErode/JobErode.odb,Step-1,Increment     10: Step Time =,    100.0,"TUBE-1",         17095,   5.87785E-03,   8.09017E-03,       1.30000,NA,NA,"",   10.0278E-03,  -867.362E-21,       1.30074,   27.8470E-06,   2.91899E+03
C:/ALETube/PressureUpdate/LargeStep/DeformErode/JobErode.odb,Step-1,Increment     10: Step Time =,    100.0,"TUBE-1",         17061,   7.07107E-03,   7.07107E-03,       1.30000,NA,NA,"",   10.0279E-03,            0.,       1.30074,   27.9339E-06,   2.92830E+03
C:/ALETube/PressureUpdate/LargeStep/DeformErode/JobErode.odb,Step-1,Increment     10: Step Time =,    100.0,"TUBE-1",         17259,   5.87785E-03,   8.09017E-03,        1.3125,NA,NA,"",   10.0281E-03,            0.,       1.31323,   28.1142E-06,   2.94694E+03
C:/ALETube/PressureUpdate/LargeStep/DeformErode/JobErode.odb,Step-1,Increment     10: Step Time =,    100.0,"TUBE-1",         17225,   7.07107E-03,   7.07107E-03,        1.3125,NA,NA,"",   10.0282E-03,            0.,       1.31323,   28.2019E-06,   2.95634E+03
C:/ALETube/PressureUpdate/LargeStep/DeformErode/JobErode.odb,Step-1,Increment     10: Step Time =,    100.0,"TUBE-1",         17389,   7.07107E-03,   7.07107E-03,       1.32500,NA,NA,"",   10.0285E-03,            0.,       1.32572,   28.4698E-06,   2.98437E+03
C:/ALETube/PressureUpdate/LargeStep/DeformErode/JobErode.odb,Step-1,Increment     10: Step Time =,    100.0,"TUBE-1",         17423,   5.87785E-03,   8.09017E-03,       1.32500,NA,NA,"",   10.0284E-03,            0.,       1.32572,   28.3813E-06,   2.97489E+03
C:/ALETube/PressureUpdate/LargeStep/DeformErode/JobErode.odb,Step-1,Increment     10: Step Time =,    100.0,"TUBE-1",         17587,   5.87785E-03,   8.09017E-03,       1.33750,NA,NA,"",   10.0286E-03,            0.,       1.33821,   28.6484E-06,   3.00283E+03
C:/ALETube/PressureUpdate/LargeStep/DeformErode/JobErode.odb,Step-1,Increment     10: Step Time =,    100.0,"TUBE-1",         17553,   7.07107E-03,   7.07107E-03,       1.33750,NA,NA,"",   10.0287E-03,            0.,       1.33821,   28.7377E-06,   3.01240E+03
C:/ALETube/PressureUpdate/LargeStep/DeformErode/JobErode.odb,Step-1,Increment     10: Step Time =,    100.0,"TUBE-1",         17751,   5.87785E-03,   8.09017E-03,       1.35000,NA,NA,"",   10.0289E-03,            0.,       1.35070,   28.9155E-06,   3.03077E+03
C:/ALETube/PressureUpdate/LargeStep/DeformErode/JobErode.odb,Step-1,Increment     10: Step Time =,    100.0,"TUBE-1",         17717,   7.07107E-03,   7.07107E-03,       1.35000,NA,NA,"",   10.0290E-03,            0.,       1.35070,   29.0056E-06,   3.04043E+03
C:/ALETube/PressureUpdate/LargeStep/DeformErode/JobErode.odb,Step-1,Increment     10: Step Time =,    100.0,"TUBE-1",         17915,   5.87785E-03,   8.09017E-03,       1.36250,NA,NA,"",   10.0292E-03,            0.,       1.36319,   29.1825E-06,   3.05871E+03
C:/ALETube/PressureUpdate/LargeStep/DeformErode/JobErode.odb,Step-1,Increment     10: Step Time =,    100.0,"TUBE-1",         17881,   7.07107E-03,   7.07107E-03,       1.36250,NA,NA,"",   10.0293E-03,            0.,       1.36319,   29.2735E-06,   3.06846E+03
C:/ALETube/PressureUpdate/LargeStep/DeformErode/JobErode.odb,Step-1,Increment     10: Step Time =,    100.0,"TUBE-1",         18079,   5.87785E-03,   8.09017E-03,         1.375,NA,NA,"",   10.0294E-03,            0.,       1.37568,   29.4496E-06,   3.08665E+03
C:/ALETube/PressureUpdate/LargeStep/DeformErode/JobErode.odb,Step-1,Increment     10: Step Time =,    100.0,"TUBE-1",         18045,   7.07107E-03,   7.07107E-03,         1.375,NA,NA,"",   10.0295E-03,            0.,       1.37568,   29.5413E-06,   3.09648E+03
C:/ALETube/PressureUpdate/LargeStep/DeformErode/JobErode.odb,Step-1,Increment     10: Step Time =,    100.0,"TUBE-1",         18209,   7.07107E-03,   7.07107E-03,       1.38750,NA,NA,"",   10.0298E-03,            0.,       1.38817,   29.8092E-06,    3.1245E+03
C:/ALETube/PressureUpdate/LargeStep/DeformErode/JobErode.odb,Step-1,Increment     10: Step Time =,    100.0,"TUBE-1",         18243,   5.87785E-03,   8.09017E-03,       1.38750,NA,NA,"",   10.0297E-03,            0.,       1.38817,   29.7166E-06,   3.11458E+03
C:/ALETube/PressureUpdate/LargeStep/DeformErode/JobErode.odb,Step-1,Increment     10: Step Time =,    100.0,"TUBE-1",         18407,   5.87785E-03,   8.09017E-03,       1.40000,NA,NA,"",   10.0300E-03,            0.,       1.40065,   29.9835E-06,   3.14250E+03
C:/ALETube/PressureUpdate/LargeStep/DeformErode/JobErode.odb,Step-1,Increment     10: Step Time =,    100.0,"TUBE-1",         18373,   7.07107E-03,   7.07107E-03,       1.40000,NA,NA,"",   10.0301E-03,            0.,       1.40065,   30.0770E-06,   3.15251E+03
C:/ALETube/PressureUpdate/LargeStep/DeformErode/JobErode.odb,Step-1,Increment     10: Step Time =,    100.0,"TUBE-1",         18571,   5.87785E-03,   8.09017E-03,       1.41250,NA,NA,"",   10.0303E-03,  -867.362E-21,       1.41314,   30.2505E-06,   3.17043E+03
C:/ALETube/PressureUpdate/LargeStep/DeformErode/JobErode.odb,Step-1,Increment     10: Step Time =,    100.0,"TUBE-1",         18537,   7.07107E-03,   7.07107E-03,       1.41250,NA,NA,"",   10.0303E-03,            0.,       1.41314,   30.3447E-06,   3.18053E+03
C:/ALETube/PressureUpdate/LargeStep/DeformErode/JobErode.odb,Step-1,Increment     10: Step Time =,    100.0,"TUBE-1",         18735,   5.87785E-03,   8.09017E-03,       1.42500,NA,NA,"",   10.0305E-03,  -867.362E-21,       1.42563,   30.5174E-06,   3.19835E+03
C:/ALETube/PressureUpdate/LargeStep/DeformErode/JobErode.odb,Step-1,Increment     10: Step Time =,    100.0,"TUBE-1",         18701,   7.07107E-03,   7.07107E-03,       1.42500,NA,NA,"",   10.0306E-03,            0.,       1.42563,   30.6125E-06,   3.20854E+03
C:/ALETube/PressureUpdate/LargeStep/DeformErode/JobErode.odb,Step-1,Increment     10: Step Time =,    100.0,"TUBE-1",         18899,   5.87785E-03,   8.09017E-03,        1.4375,NA,NA,"",   10.0308E-03,            0.,       1.43812,   30.7844E-06,   3.22627E+03
C:/ALETube/PressureUpdate/LargeStep/DeformErode/JobErode.odb,Step-1,Increment     10: Step Time =,    100.0,"TUBE-1",         18865,   7.07107E-03,   7.07107E-03,        1.4375,NA,NA,"",   10.0309E-03,            0.,       1.43812,   30.8802E-06,   3.23654E+03
C:/ALETube/PressureUpdate/LargeStep/DeformErode/JobErode.odb,Step-1,Increment     10: Step Time =,    100.0,"TUBE-1",         19029,   7.07107E-03,   7.07107E-03,       1.45000,NA,NA,"",   10.0311E-03,            0.,       1.45061,   31.1479E-06,   3.26454E+03
C:/ALETube/PressureUpdate/LargeStep/DeformErode/JobErode.odb,Step-1,Increment     10: Step Time =,    100.0,"TUBE-1",         19063,   5.87785E-03,   8.09017E-03,       1.45000,NA,NA,"",   10.0311E-03,  -867.362E-21,       1.45061,   31.0512E-06,   3.25418E+03
C:/ALETube/PressureUpdate/LargeStep/DeformErode/JobErode.odb,Step-1,Increment     10: Step Time =,    100.0,"TUBE-1",         19227,   5.87785E-03,   8.09017E-03,       1.46250,NA,NA,"",   10.0313E-03,            0.,       1.46310,   31.3181E-06,   3.28209E+03
C:/ALETube/PressureUpdate/LargeStep/DeformErode/JobErode.odb,Step-1,Increment     10: Step Time =,    100.0,"TUBE-1",         19193,   7.07107E-03,   7.07107E-03,       1.46250,NA,NA,"",   10.0314E-03,            0.,       1.46310,   31.4156E-06,   3.29254E+03
C:/ALETube/PressureUpdate/LargeStep/DeformErode/JobErode.odb,Step-1,Increment     10: Step Time =,    100.0,"TUBE-1",         19391,   5.87785E-03,   8.09017E-03,       1.47500,NA,NA,"",   10.0316E-03,            0.,       1.47559,   31.5850E-06,   3.31000E+03
C:/ALETube/PressureUpdate/LargeStep/DeformErode/JobErode.odb,Step-1,Increment     10: Step Time =,    100.0,"TUBE-1",         19357,   7.07107E-03,   7.07107E-03,       1.47500,NA,NA,"",   10.0317E-03,            0.,       1.47559,   31.6833E-06,   3.32053E+03
C:/ALETube/PressureUpdate/LargeStep/DeformErode/JobErode.odb,Step-1,Increment     10: Step Time =,    100.0,"TUBE-1",         19555,   5.87785E-03,   8.09017E-03,       1.48750,NA,NA,"",   10.0319E-03,   867.362E-21,       1.48807,   31.8518E-06,   3.33790E+03
C:/ALETube/PressureUpdate/LargeStep/DeformErode/JobErode.odb,Step-1,Increment     10: Step Time =,    100.0,"TUBE-1",         19521,   7.07107E-03,   7.07107E-03,       1.48750,NA,NA,"",   10.0320E-03,            0.,       1.48807,   31.9509E-06,   3.34853E+03
C:/ALETube/PressureUpdate/LargeStep/DeformErode/JobErode.odb,Step-1,Increment     10: Step Time =,    100.0,"TUBE-1",         19719,   5.87785E-03,   8.09017E-03,           1.5,NA,NA,"",   10.0321E-03,  -867.362E-21,       1.50056,   32.1186E-06,   3.36580E+03
C:/ALETube/PressureUpdate/LargeStep/DeformErode/JobErode.odb,Step-1,Increment     10: Step Time =,    100.0,"TUBE-1",         19685,   7.07107E-03,   7.07107E-03,           1.5,NA,NA,"",   10.0322E-03,            0.,       1.50056,   32.2185E-06,   3.37651E+03
C:/ALETube/PressureUpdate/LargeStep/DeformErode/JobErode.odb,Step-1,Increment     10: Step Time =,    100.0,"TUBE-1",         19849,   7.07107E-03,   7.07107E-03,       1.51250,NA,NA,"",   10.0325E-03,            0.,       1.51305,   32.4861E-06,   3.40450E+03
C:/ALETube/PressureUpdate/LargeStep/DeformErode/JobErode.odb,Step-1,Increment     10: Step Time =,    100.0,"TUBE-1",         19883,   5.87785E-03,   8.09017E-03,       1.51250,NA,NA,"",   10.0324E-03,            0.,       1.51305,   32.3853E-06,   3.39370E+03
C:/ALETube/PressureUpdate/LargeStep/DeformErode/JobErode.odb,Step-1,Increment     10: Step Time =,    100.0,"TUBE-1",         20047,   5.87785E-03,   8.09017E-03,       1.52500,NA,NA,"",   10.0327E-03,  -867.362E-21,       1.52554,   32.6521E-06,   3.42159E+03
C:/ALETube/PressureUpdate/LargeStep/DeformErode/JobErode.odb,Step-1,Increment     10: Step Time =,    100.0,"TUBE-1",         20013,   7.07107E-03,   7.07107E-03,       1.52500,NA,NA,"",   10.0328E-03,            0.,       1.52554,   32.7537E-06,   3.43248E+03
C:/ALETube/PressureUpdate/LargeStep/DeformErode/JobErode.odb,Step-1,Increment     10: Step Time =,    100.0,"TUBE-1",         20211,   5.87785E-03,   8.09017E-03,       1.53750,NA,NA,"",   10.0329E-03,  -867.362E-21,       1.53803,   32.9188E-06,   3.44948E+03
C:/ALETube/PressureUpdate/LargeStep/DeformErode/JobErode.odb,Step-1,Increment     10: Step Time =,    100.0,"TUBE-1",         20177,   7.07107E-03,   7.07107E-03,       1.53750,NA,NA,"",   10.0330E-03,            0.,       1.53803,   33.0212E-06,   3.46046E+03
C:/ALETube/PressureUpdate/LargeStep/DeformErode/JobErode.odb,Step-1,Increment     10: Step Time =,    100.0,"TUBE-1",         20375,   5.87785E-03,   8.09017E-03,       1.55000,NA,NA,"",   10.0332E-03,            0.,       1.55051,   33.1855E-06,   3.47737E+03
C:/ALETube/PressureUpdate/LargeStep/DeformErode/JobErode.odb,Step-1,Increment     10: Step Time =,    100.0,"TUBE-1",         20341,   7.07107E-03,   7.07107E-03,       1.55000,NA,NA,"",   10.0333E-03,            0.,       1.55051,   33.2887E-06,   3.48843E+03
C:/ALETube/PressureUpdate/LargeStep/DeformErode/JobErode.odb,Step-1,Increment     10: Step Time =,    100.0,"TUBE-1",         20539,   5.87785E-03,   8.09017E-03,        1.5625,NA,NA,"",   10.0335E-03,            0.,       1.56300,   33.4522E-06,   3.50525E+03
C:/ALETube/PressureUpdate/LargeStep/DeformErode/JobErode.odb,Step-1,Increment     10: Step Time =,    100.0,"TUBE-1",         20505,   7.07107E-03,   7.07107E-03,        1.5625,NA,NA,"",   10.0336E-03,            0.,       1.56300,   33.5562E-06,   3.51640E+03
C:/ALETube/PressureUpdate/LargeStep/DeformErode/JobErode.odb,Step-1,Increment     10: Step Time =,    100.0,"TUBE-1",         20669,   7.07107E-03,   7.07107E-03,       1.57500,NA,NA,"",   10.0338E-03,            0.,       1.57549,   33.8237E-06,   3.54437E+03
C:/ALETube/PressureUpdate/LargeStep/DeformErode/JobErode.odb,Step-1,Increment     10: Step Time =,    100.0,"TUBE-1",         20703,   5.87785E-03,   8.09017E-03,       1.57500,NA,NA,"",   10.0337E-03,            0.,       1.57549,   33.7189E-06,   3.53314E+03
C:/ALETube/PressureUpdate/LargeStep/DeformErode/JobErode.odb,Step-1,Increment     10: Step Time =,    100.0,"TUBE-1",         20867,   5.87785E-03,   8.09017E-03,       1.58750,NA,NA,"",   10.0340E-03,            0.,       1.58797,   33.9855E-06,   3.56101E+03
C:/ALETube/PressureUpdate/LargeStep/DeformErode/JobErode.odb,Step-1,Increment     10: Step Time =,    100.0,"TUBE-1",         20833,   7.07107E-03,   7.07107E-03,       1.58750,NA,NA,"",   10.0341E-03,            0.,       1.58797,   34.0912E-06,   3.57233E+03
C:/ALETube/PressureUpdate/LargeStep/DeformErode/JobErode.odb,Step-1,Increment     10: Step Time =,    100.0,"TUBE-1",         21031,   5.87785E-03,   8.09017E-03,       1.60000,NA,NA,"",   10.0343E-03,            0.,       1.60046,   34.2521E-06,   3.58889E+03
C:/ALETube/PressureUpdate/LargeStep/DeformErode/JobErode.odb,Step-1,Increment     10: Step Time =,    100.0,"TUBE-1",         20997,   7.07107E-03,   7.07107E-03,       1.60000,NA,NA,"",   10.0344E-03,            0.,       1.60046,   34.3586E-06,   3.60030E+03
C:/ALETube/PressureUpdate/LargeStep/DeformErode/JobErode.odb,Step-1,Increment     10: Step Time =,    100.0,"TUBE-1",         21195,   5.87785E-03,   8.09017E-03,       1.61250,NA,NA,"",   10.0345E-03,            0.,       1.61295,   34.5187E-06,   3.61676E+03
C:/ALETube/PressureUpdate/LargeStep/DeformErode/JobErode.odb,Step-1,Increment     10: Step Time =,    100.0,"TUBE-1",         21161,   7.07107E-03,   7.07107E-03,       1.61250,NA,NA,"",   10.0346E-03,            0.,       1.61295,   34.6260E-06,   3.62825E+03
C:/ALETube/PressureUpdate/LargeStep/DeformErode/JobErode.odb,Step-1,Increment     10: Step Time =,    100.0,"TUBE-1",         21359,   5.87785E-03,   8.09017E-03,         1.625,NA,NA,"",   10.0348E-03,  -867.362E-21,       1.62544,   34.7853E-06,   3.64462E+03
C:/ALETube/PressureUpdate/LargeStep/DeformErode/JobErode.odb,Step-1,Increment     10: Step Time =,    100.0,"TUBE-1",         21325,   7.07107E-03,   7.07107E-03,         1.625,NA,NA,"",   10.0349E-03,            0.,       1.62544,   34.8934E-06,   3.65621E+03
C:/ALETube/PressureUpdate/LargeStep/DeformErode/JobErode.odb,Step-1,Increment     10: Step Time =,    100.0,"TUBE-1",         21489,   7.07107E-03,   7.07107E-03,       1.63750,NA,NA,"",   10.0352E-03,            0.,       1.63792,   35.1607E-06,   3.68416E+03
C:/ALETube/PressureUpdate/LargeStep/DeformErode/JobErode.odb,Step-1,Increment     10: Step Time =,    100.0,"TUBE-1",         21523,   5.87785E-03,   8.09017E-03,       1.63750,NA,NA,"",   10.0351E-03,            0.,       1.63792,   35.0518E-06,   3.67249E+03
C:/ALETube/PressureUpdate/LargeStep/DeformErode/JobErode.odb,Step-1,Increment     10: Step Time =,    100.0,"TUBE-1",         21687,   5.87785E-03,   8.09017E-03,       1.65000,NA,NA,"",   10.0353E-03,            0.,       1.65041,   35.3183E-06,   3.70034E+03
C:/ALETube/PressureUpdate/LargeStep/DeformErode/JobErode.odb,Step-1,Increment     10: Step Time =,    100.0,"TUBE-1",         21653,   7.07107E-03,   7.07107E-03,       1.65000,NA,NA,"",   10.0354E-03,            0.,       1.65041,   35.4280E-06,   3.71210E+03
C:/ALETube/PressureUpdate/LargeStep/DeformErode/JobErode.odb,Step-1,Increment     10: Step Time =,    100.0,"TUBE-1",         21851,   5.87785E-03,   8.09017E-03,       1.66250,NA,NA,"",   10.0356E-03,            0.,       1.66290,   35.5848E-06,   3.72820E+03
C:/ALETube/PressureUpdate/LargeStep/DeformErode/JobErode.odb,Step-1,Increment     10: Step Time =,    100.0,"TUBE-1",         21817,   7.07107E-03,   7.07107E-03,       1.66250,NA,NA,"",   10.0357E-03,            0.,       1.66290,   35.6954E-06,   3.74005E+03
C:/ALETube/PressureUpdate/LargeStep/DeformErode/JobErode.odb,Step-1,Increment     10: Step Time =,    100.0,"TUBE-1",         22015,   5.87785E-03,   8.09017E-03,       1.67500,NA,NA,"",   10.0359E-03,            0.,       1.67538,   35.8515E-06,   3.75607E+03
C:/ALETube/PressureUpdate/LargeStep/DeformErode/JobErode.odb,Step-1,Increment     10: Step Time =,    100.0,"TUBE-1",         21981,   7.07107E-03,   7.07107E-03,       1.67500,NA,NA,"",   10.0360E-03,            0.,       1.67538,   35.9628E-06,   3.76800E+03
C:/ALETube/PressureUpdate/LargeStep/DeformErode/JobErode.odb,Step-1,Increment     10: Step Time =,    100.0,"TUBE-1",         22179,   5.87785E-03,   8.09017E-03,        1.6875,NA,NA,"",   10.0361E-03,            0.,       1.68787,   36.1179E-06,   3.78392E+03
C:/ALETube/PressureUpdate/LargeStep/DeformErode/JobErode.odb,Step-1,Increment     10: Step Time =,    100.0,"TUBE-1",         22145,   7.07107E-03,   7.07107E-03,        1.6875,NA,NA,"",   10.0362E-03,            0.,       1.68787,   36.2300E-06,   3.79594E+03
C:/ALETube/PressureUpdate/LargeStep/DeformErode/JobErode.odb,Step-1,Increment     10: Step Time =,    100.0,"TUBE-1",         22309,   7.07107E-03,   7.07107E-03,       1.70000,NA,NA,"",   10.0365E-03,            0.,       1.70036,   36.4973E-06,   3.82387E+03
C:/ALETube/PressureUpdate/LargeStep/DeformErode/JobErode.odb,Step-1,Increment     10: Step Time =,    100.0,"TUBE-1",         22343,   5.87785E-03,   8.09017E-03,       1.70000,NA,NA,"",   10.0364E-03,            0.,       1.70036,   36.3843E-06,   3.81177E+03
C:/ALETube/PressureUpdate/LargeStep/DeformErode/JobErode.odb,Step-1,Increment     10: Step Time =,    100.0,"TUBE-1",         22507,   5.87785E-03,   8.09017E-03,       1.71250,NA,NA,"",   10.0367E-03,  -867.362E-21,       1.71284,   36.6507E-06,   3.83961E+03
C:/ALETube/PressureUpdate/LargeStep/DeformErode/JobErode.odb,Step-1,Increment     10: Step Time =,    100.0,"TUBE-1",         22473,   7.07107E-03,   7.07107E-03,       1.71250,NA,NA,"",   10.0368E-03,            0.,       1.71284,   36.7645E-06,   3.85180E+03
C:/ALETube/PressureUpdate/LargeStep/DeformErode/JobErode.odb,Step-1,Increment     10: Step Time =,    100.0,"TUBE-1",         22671,   5.87785E-03,   8.09017E-03,       1.72500,NA,NA,"",   10.0369E-03,            0.,       1.72533,   36.9171E-06,   3.86745E+03
C:/ALETube/PressureUpdate/LargeStep/DeformErode/JobErode.odb,Step-1,Increment     10: Step Time =,    100.0,"TUBE-1",         22637,   7.07107E-03,   7.07107E-03,       1.72500,NA,NA,"",   10.0370E-03,            0.,       1.72533,   37.0317E-06,   3.87973E+03
C:/ALETube/PressureUpdate/LargeStep/DeformErode/JobErode.odb,Step-1,Increment     10: Step Time =,    100.0,"TUBE-1",         22835,   5.87785E-03,   8.09017E-03,       1.73750,NA,NA,"",   10.0372E-03,            0.,       1.73781,   37.1836E-06,   3.89530E+03
C:/ALETube/PressureUpdate/LargeStep/DeformErode/JobErode.odb,Step-1,Increment     10: Step Time =,    100.0,"TUBE-1",         22801,   7.07107E-03,   7.07107E-03,       1.73750,NA,NA,"",   10.0373E-03,            0.,       1.73781,   37.2990E-06,   3.90766E+03
C:/ALETube/PressureUpdate/LargeStep/DeformErode/JobErode.odb,Step-1,Increment     10: Step Time =,    100.0,"TUBE-1",         22999,   5.87785E-03,   8.09017E-03,          1.75,NA,NA,"",   10.0375E-03,            0.,       1.75030,   37.4499E-06,   3.92313E+03
C:/ALETube/PressureUpdate/LargeStep/DeformErode/JobErode.odb,Step-1,Increment     10: Step Time =,    100.0,"TUBE-1",         22965,   7.07107E-03,   7.07107E-03,          1.75,NA,NA,"",   10.0376E-03,            0.,       1.75030,   37.5661E-06,   3.93558E+03
C:/ALETube/PressureUpdate/LargeStep/DeformErode/JobErode.odb,Step-1,Increment     10: Step Time =,    100.0,"TUBE-1",         23129,   7.07107E-03,   7.07107E-03,       1.76250,NA,NA,"",   10.0378E-03,            0.,       1.76279,   37.8332E-06,   3.96349E+03
C:/ALETube/PressureUpdate/LargeStep/DeformErode/JobErode.odb,Step-1,Increment     10: Step Time =,    100.0,"TUBE-1",         23163,   5.87785E-03,   8.09017E-03,       1.76250,NA,NA,"",   10.0377E-03,  -867.362E-21,       1.76279,   37.7162E-06,   3.95096E+03
C:/ALETube/PressureUpdate/LargeStep/DeformErode/JobErode.odb,Step-1,Increment     10: Step Time =,    100.0,"TUBE-1",         23327,   5.87785E-03,   8.09017E-03,       1.77500,NA,NA,"",   10.0380E-03,   867.362E-21,       1.77527,   37.9826E-06,   3.97880E+03
C:/ALETube/PressureUpdate/LargeStep/DeformErode/JobErode.odb,Step-1,Increment     10: Step Time =,    100.0,"TUBE-1",         23293,   7.07107E-03,   7.07107E-03,       1.77500,NA,NA,"",   10.0381E-03,            0.,       1.77527,   38.1004E-06,   3.99141E+03
C:/ALETube/PressureUpdate/LargeStep/DeformErode/JobErode.odb,Step-1,Increment     10: Step Time =,    100.0,"TUBE-1",         23491,   5.87785E-03,   8.09017E-03,       1.78750,NA,NA,"",   10.0382E-03,            0.,       1.78776,   38.2489E-06,   4.00662E+03
C:/ALETube/PressureUpdate/LargeStep/DeformErode/JobErode.odb,Step-1,Increment     10: Step Time =,    100.0,"TUBE-1",         23457,   7.07107E-03,   7.07107E-03,       1.78750,NA,NA,"",   10.0384E-03,            0.,       1.78776,   38.3674E-06,   4.01932E+03
C:/ALETube/PressureUpdate/LargeStep/DeformErode/JobErode.odb,Step-1,Increment     10: Step Time =,    100.0,"TUBE-1",         23655,   5.87785E-03,   8.09017E-03,       1.80000,NA,NA,"",   10.0385E-03,   867.362E-21,       1.80024,   38.5152E-06,   4.03444E+03
C:/ALETube/PressureUpdate/LargeStep/DeformErode/JobErode.odb,Step-1,Increment     10: Step Time =,    100.0,"TUBE-1",         23621,   7.07107E-03,   7.07107E-03,       1.80000,NA,NA,"",   10.0386E-03,            0.,       1.80024,   38.6345E-06,   4.04723E+03
C:/ALETube/PressureUpdate/LargeStep/DeformErode/JobErode.odb,Step-1,Increment     10: Step Time =,    100.0,"TUBE-1",         23819,   5.87785E-03,   8.09017E-03,        1.8125,NA,NA,"",   10.0388E-03,            0.,       1.81273,   38.7814E-06,   4.06226E+03
C:/ALETube/PressureUpdate/LargeStep/DeformErode/JobErode.odb,Step-1,Increment     10: Step Time =,    100.0,"TUBE-1",         23785,   7.07107E-03,   7.07107E-03,        1.8125,NA,NA,"",   10.0389E-03,            0.,       1.81273,   38.9016E-06,   4.07514E+03
C:/ALETube/PressureUpdate/LargeStep/DeformErode/JobErode.odb,Step-1,Increment     10: Step Time =,    100.0,"TUBE-1",         23949,   7.07107E-03,   7.07107E-03,       1.82500,NA,NA,"",   10.0392E-03,            0.,       1.82521,   39.1686E-06,   4.10304E+03
C:/ALETube/PressureUpdate/LargeStep/DeformErode/JobErode.odb,Step-1,Increment     10: Step Time =,    100.0,"TUBE-1",         23983,   5.87785E-03,   8.09017E-03,       1.82500,NA,NA,"",   10.0390E-03,            0.,       1.82521,   39.0476E-06,   4.09007E+03
C:/ALETube/PressureUpdate/LargeStep/DeformErode/JobErode.odb,Step-1,Increment     10: Step Time =,    100.0,"TUBE-1",         24147,   5.87785E-03,   8.09017E-03,       1.83750,NA,NA,"",   10.0393E-03,            0.,       1.83770,   39.3138E-06,   4.11788E+03
C:/ALETube/PressureUpdate/LargeStep/DeformErode/JobErode.odb,Step-1,Increment     10: Step Time =,    100.0,"TUBE-1",         24113,   7.07107E-03,   7.07107E-03,       1.83750,NA,NA,"",   10.0394E-03,            0.,       1.83770,   39.4355E-06,   4.13093E+03
C:/ALETube/PressureUpdate/LargeStep/DeformErode/JobErode.odb,Step-1,Increment     10: Step Time =,    100.0,"TUBE-1",         24311,   5.87785E-03,   8.09017E-03,       1.85000,NA,NA,"",   10.0396E-03,            0.,       1.85019,   39.5799E-06,   4.14569E+03
C:/ALETube/PressureUpdate/LargeStep/DeformErode/JobErode.odb,Step-1,Increment     10: Step Time =,    100.0,"TUBE-1",         24277,   7.07107E-03,   7.07107E-03,       1.85000,NA,NA,"",   10.0397E-03,            0.,       1.85019,   39.7025E-06,   4.15882E+03
C:/ALETube/PressureUpdate/LargeStep/DeformErode/JobErode.odb,Step-1,Increment     10: Step Time =,    100.0,"TUBE-1",         24475,   5.87785E-03,   8.09017E-03,       1.86250,NA,NA,"",   10.0398E-03,            0.,       1.86267,   39.8460E-06,   4.17349E+03
C:/ALETube/PressureUpdate/LargeStep/DeformErode/JobErode.odb,Step-1,Increment     10: Step Time =,    100.0,"TUBE-1",         24441,   7.07107E-03,   7.07107E-03,       1.86250,NA,NA,"",   10.0400E-03,            0.,       1.86267,   39.9694E-06,   4.18671E+03
C:/ALETube/PressureUpdate/LargeStep/DeformErode/JobErode.odb,Step-1,Increment     10: Step Time =,    100.0,"TUBE-1",         24639,   5.87785E-03,   8.09017E-03,         1.875,NA,NA,"",   10.0401E-03,  -867.362E-21,       1.87516,   40.1122E-06,   4.20129E+03
C:/ALETube/PressureUpdate/LargeStep/DeformErode/JobErode.odb,Step-1,Increment     10: Step Time =,    100.0,"TUBE-1",         24605,   7.07107E-03,   7.07107E-03,         1.875,NA,NA,"",   10.0402E-03,            0.,       1.87516,   40.2364E-06,   4.21460E+03
C:/ALETube/PressureUpdate/LargeStep/DeformErode/JobErode.odb,Step-1,Increment     10: Step Time =,    100.0,"TUBE-1",         24769,   7.07107E-03,   7.07107E-03,       1.88750,NA,NA,"",   10.0405E-03,            0.,       1.88764,   40.5033E-06,   4.24248E+03
C:/ALETube/PressureUpdate/LargeStep/DeformErode/JobErode.odb,Step-1,Increment     10: Step Time =,    100.0,"TUBE-1",         24803,   5.87785E-03,   8.09017E-03,       1.88750,NA,NA,"",   10.0404E-03,            0.,       1.88764,   40.3782E-06,   4.22909E+03
C:/ALETube/PressureUpdate/LargeStep/DeformErode/JobErode.odb,Step-1,Increment     10: Step Time =,    100.0,"TUBE-1",         24967,   5.87785E-03,   8.09017E-03,       1.90000,NA,NA,"",   10.0406E-03,            0.,       1.90012,   40.6443E-06,   4.25688E+03
C:/ALETube/PressureUpdate/LargeStep/DeformErode/JobErode.odb,Step-1,Increment     10: Step Time =,    100.0,"TUBE-1",         24933,   7.07107E-03,   7.07107E-03,       1.90000,NA,NA,"",   10.0408E-03,            0.,       1.90012,   40.7701E-06,   4.27037E+03
C:/ALETube/PressureUpdate/LargeStep/DeformErode/JobErode.odb,Step-1,Increment     10: Step Time =,    100.0,"TUBE-1",         25131,   5.87785E-03,   8.09017E-03,       1.91250,NA,NA,"",   10.0409E-03,   867.362E-21,       1.91261,   40.9103E-06,   4.28466E+03
C:/ALETube/PressureUpdate/LargeStep/DeformErode/JobErode.odb,Step-1,Increment     10: Step Time =,    100.0,"TUBE-1",         25097,   7.07107E-03,   7.07107E-03,       1.91250,NA,NA,"",   10.0410E-03,            0.,       1.91261,   41.0369E-06,   4.29823E+03
C:/ALETube/PressureUpdate/LargeStep/DeformErode/JobErode.odb,Step-1,Increment     10: Step Time =,    100.0,"TUBE-1",         25295,   5.87785E-03,   8.09017E-03,       1.92500,NA,NA,"",   10.0412E-03,            0.,       1.92509,   41.1764E-06,   4.31247E+03
C:/ALETube/PressureUpdate/LargeStep/DeformErode/JobErode.odb,Step-1,Increment     10: Step Time =,    100.0,"TUBE-1",         25261,   7.07107E-03,   7.07107E-03,       1.92500,NA,NA,"",   10.0413E-03,            0.,       1.92509,   41.3038E-06,   4.32613E+03
C:/ALETube/PressureUpdate/LargeStep/DeformErode/JobErode.odb,Step-1,Increment     10: Step Time =,    100.0,"TUBE-1",         25459,   5.87785E-03,   8.09017E-03,        1.9375,NA,NA,"",   10.0414E-03,            0.,       1.93758,   41.4422E-06,   4.34019E+03
C:/ALETube/PressureUpdate/LargeStep/DeformErode/JobErode.odb,Step-1,Increment     10: Step Time =,    100.0,"TUBE-1",         25425,   7.07107E-03,   7.07107E-03,        1.9375,NA,NA,"",   10.0416E-03,            0.,       1.93758,   41.5704E-06,   4.35393E+03
C:/ALETube/PressureUpdate/LargeStep/DeformErode/JobErode.odb,Step-1,Increment     10: Step Time =,    100.0,"TUBE-1",         25589,   7.07107E-03,   7.07107E-03,       1.95000,NA,NA,"",   10.0418E-03,            0.,       1.95006,   41.8383E-06,   4.38194E+03
C:/ALETube/PressureUpdate/LargeStep/DeformErode/JobErode.odb,Step-1,Increment     10: Step Time =,    100.0,"TUBE-1",         25623,   5.87785E-03,   8.09017E-03,       1.95000,NA,NA,"",   10.0417E-03,            0.,       1.95006,   41.7092E-06,   4.36811E+03
C:/ALETube/PressureUpdate/LargeStep/DeformErode/JobErode.odb,Step-1,Increment     10: Step Time =,    100.0,"TUBE-1",         25787,   5.87785E-03,   8.09017E-03,       1.96250,NA,NA,"",   10.0420E-03,            0.,       1.96255,   41.9688E-06,   4.39530E+03
C:/ALETube/PressureUpdate/LargeStep/DeformErode/JobErode.odb,Step-1,Increment     10: Step Time =,    100.0,"TUBE-1",         25753,   7.07107E-03,   7.07107E-03,       1.96250,NA,NA,"",   10.0421E-03,            0.,       1.96255,   42.0986E-06,   4.40918E+03
C:/ALETube/PressureUpdate/LargeStep/DeformErode/JobErode.odb,Step-1,Increment     10: Step Time =,    100.0,"TUBE-1",         25951,   5.87785E-03,   8.09017E-03,       1.97500,NA,NA,"",   10.0423E-03,  -867.362E-21,       1.97503,   42.2507E-06,   4.42415E+03
C:/ALETube/PressureUpdate/LargeStep/DeformErode/JobErode.odb,Step-1,Increment     10: Step Time =,    100.0,"TUBE-1",         25917,   7.07107E-03,   7.07107E-03,       1.97500,NA,NA,"",   10.0424E-03,            0.,       1.97503,   42.3796E-06,   4.43805E+03
C:/ALETube/PressureUpdate/LargeStep/DeformErode/JobErode.odb,Step-1,Increment     10: Step Time =,    100.0,"TUBE-1",         26115,   5.87785E-03,   8.09017E-03,       1.98750,NA,NA,"",   10.0425E-03,  -867.362E-21,       1.98751,   42.5153E-06,   4.45189E+03
C:/ALETube/PressureUpdate/LargeStep/DeformErode/JobErode.odb,Step-1,Increment     10: Step Time =,    100.0,"TUBE-1",         26081,   7.07107E-03,   7.07107E-03,       1.98750,NA,NA,"",   10.0427E-03,            0.,       1.98751,   42.6558E-06,   4.46661E+03
C:/ALETube/PressureUpdate/LargeStep/DeformErode/JobErode.odb,Step-1,Increment     10: Step Time =,    100.0,"TUBE-1",         26279,   5.87785E-03,   8.09017E-03,            2.,NA,NA,"",   10.0426E-03,            0.,            2.,   42.5596E-06,   4.45282E+03
C:/ALETube/PressureUpdate/LargeStep/DeformErode/JobErode.odb,Step-1,Increment     10: Step Time =,    100.0,"TUBE-1",         26245,   7.07107E-03,   7.07107E-03,            2.,NA,NA,"",   10.0427E-03,            0.,            2.,   42.6893E-06,   4.46991E+03
