ODB Name,Step,Frame,Part Instance Name,    Node Label,X,Y,Z,Section Name,Material Name,Section Point,   COORD-COOR1,   COORD-COOR2,   COORD-COOR3,          U-U1,       S-Mises
C:/ALETube/PressureUpdate/LargeStep/DeformErode/JobErode.odb,Step-1,Increment      0: Step Time =,    0.000,"TUBE-1",            62,  -2.92791E-03,  -4.05307E-03,            0.,NA,NA,"",   5.00000E-03,            0.,            0.,            0.,            0.
C:/ALETube/PressureUpdate/LargeStep/DeformErode/JobErode.odb,Step-1,Increment      0: Step Time =,    0.000,"TUBE-1",             3,  -3.50742E-03,  -3.56342E-03,            0.,NA,NA,"",   5.00000E-03,            0.,            0.,            0.,            0.
C:/ALETube/PressureUpdate/LargeStep/DeformErode/JobErode.odb,Step-1,Increment      0: Step Time =,    0.000,"TUBE-1",           226,  -2.92791E-03,  -4.05307E-03,   12.5000E-03,NA,NA,"",   5.00000E-03,            0.,   12.5000E-03,            0.,            0.
C:/ALETube/PressureUpdate/LargeStep/DeformErode/JobErode.odb,Step-1,Increment      0: Step Time =,    0.000,"TUBE-1",           167,  -3.50742E-03,  -3.56342E-03,   12.5000E-03,NA,NA,"",   5.00000E-03,            0.,   12.5000E-03,            0.,            0.
C:/ALETube/PressureUpdate/LargeStep/DeformErode/JobErode.odb,Step-1,Increment      0: Step Time =,    0.000,"TUBE-1",           331,  -3.50742E-03,  -3.56342E-03,   25.0000E-03,NA,NA,"",   5.00000E-03,            0.,   25.0000E-03,            0.,            0.
C:/ALETube/PressureUpdate/LargeStep/DeformErode/JobErode.odb,Step-1,Increment      0: Step Time =,    0.000,"TUBE-1",           390,  -2.92791E-03,  -4.05307E-03,   25.0000E-03,NA,NA,"",   5.00000E-03,            0.,   25.0000E-03,            0.,            0.
C:/ALETube/PressureUpdate/LargeStep/DeformErode/JobErode.odb,Step-1,Increment      0: Step Time =,    0.000,"TUBE-1",           554,  -2.92791E-03,  -4.05307E-03,   37.5000E-03,NA,NA,"",   5.00000E-03,            0.,   37.5000E-03,            0.,            0.
C:/ALETube/PressureUpdate/LargeStep/DeformErode/JobErode.odb,Step-1,Increment      0: Step Time =,    0.000,"TUBE-1",           495,  -3.50742E-03,  -3.56342E-03,   37.5000E-03,NA,NA,"",   5.00000E-03,            0.,   37.5000E-03,            0.,            0.
C:/ALETube/PressureUpdate/LargeStep/DeformErode/JobErode.odb,Step-1,Increment      0: Step Time =,    0.000,"TUBE-1",           718,  -2.92791E-03,  -4.05307E-03,   50.0000E-03,NA,NA,"",   5.00000E-03,            0.,   50.0000E-03,            0.,            0.
C:/ALETube/PressureUpdate/LargeStep/DeformErode/JobErode.odb,Step-1,Increment      0: Step Time =,    0.000,"TUBE-1",           659,  -3.50742E-03,  -3.56342E-03,   50.0000E-03,NA,NA,"",   5.00000E-03,            0.,   50.0000E-03,            0.,            0.
C:/ALETube/PressureUpdate/LargeStep/DeformErode/JobErode.odb,Step-1,Increment      0: Step Time =,    0.000,"TUBE-1",           823,  -3.50742E-03,  -3.56342E-03,      62.5E-03,NA,NA,"",   5.00000E-03,            0.,      62.5E-03,            0.,            0.
C:/ALETube/PressureUpdate/LargeStep/DeformErode/JobErode.odb,Step-1,Increment      0: Step Time =,    0.000,"TUBE-1",           882,  -2.92791E-03,  -4.05307E-03,      62.5E-03,NA,NA,"",   5.00000E-03,            0.,      62.5E-03,            0.,            0.
C:/ALETube/PressureUpdate/LargeStep/DeformErode/JobErode.odb,Step-1,Increment      0: Step Time =,    0.000,"TUBE-1",          1046,  -2.92791E-03,  -4.05307E-03,   75.0000E-03,NA,NA,"",   5.00000E-03,            0.,   75.0000E-03,            0.,            0.
C:/ALETube/PressureUpdate/LargeStep/DeformErode/JobErode.odb,Step-1,Increment      0: Step Time =,    0.000,"TUBE-1",           987,  -3.50742E-03,  -3.56342E-03,   75.0000E-03,NA,NA,"",   5.00000E-03,            0.,   75.0000E-03,            0.,            0.
C:/ALETube/PressureUpdate/LargeStep/DeformErode/JobErode.odb,Step-1,Increment      0: Step Time =,    0.000,"TUBE-1",          1210,  -2.92791E-03,  -4.05307E-03,   87.5000E-03,NA,NA,"",   5.00000E-03,            0.,   87.5000E-03,            0.,            0.
C:/ALETube/PressureUpdate/LargeStep/DeformErode/JobErode.odb,Step-1,Increment      0: Step Time =,    0.000,"TUBE-1",          1151,  -3.50742E-03,  -3.56342E-03,   87.5000E-03,NA,NA,"",   5.00000E-03,            0.,   87.5000E-03,            0.,            0.
C:/ALETube/PressureUpdate/LargeStep/DeformErode/JobErode.odb,Step-1,Increment      0: Step Time =,    0.000,"TUBE-1",          1374,  -2.92791E-03,  -4.05307E-03,   100.000E-03,NA,NA,"",   5.00000E-03,            0.,   100.000E-03,            0.,            0.
C:/ALETube/PressureUpdate/LargeStep/DeformErode/JobErode.odb,Step-1,Increment      0: Step Time =,    0.000,"TUBE-1",          1315,  -3.50742E-03,  -3.56342E-03,   100.000E-03,NA,NA,"",   5.00000E-03,            0.,   100.000E-03,            0.,            0.
C:/ALETube/PressureUpdate/LargeStep/DeformErode/JobErode.odb,Step-1,Increment      0: Step Time =,    0.000,"TUBE-1",          1538,  -2.92791E-03,  -4.05307E-03,   112.500E-03,NA,NA,"",   5.00000E-03,            0.,   112.500E-03,            0.,            0.
C:/ALETube/PressureUpdate/LargeStep/DeformErode/JobErode.odb,Step-1,Increment      0: Step Time =,    0.000,"TUBE-1",          1479,  -3.50742E-03,  -3.56342E-03,   112.500E-03,NA,NA,"",   5.00000E-03,            0.,   112.500E-03,            0.,            0.
C:/ALETube/PressureUpdate/LargeStep/DeformErode/JobErode.odb,Step-1,Increment      0: Step Time =,    0.000,"TUBE-1",          1643,  -3.50742E-03,  -3.56342E-03,      125.E-03,NA,NA,"",   5.00000E-03,            0.,      125.E-03,            0.,            0.
C:/ALETube/PressureUpdate/LargeStep/DeformErode/JobErode.odb,Step-1,Increment      0: Step Time =,    0.000,"TUBE-1",          1702,  -2.92791E-03,  -4.05307E-03,      125.E-03,NA,NA,"",   5.00000E-03,            0.,      125.E-03,            0.,            0.
C:/ALETube/PressureUpdate/LargeStep/DeformErode/JobErode.odb,Step-1,Increment      0: Step Time =,    0.000,"TUBE-1",          1866,  -2.92791E-03,  -4.05307E-03,   137.500E-03,NA,NA,"",   5.00000E-03,            0.,   137.500E-03,            0.,            0.
C:/ALETube/PressureUpdate/LargeStep/DeformErode/JobErode.odb,Step-1,Increment      0: Step Time =,    0.000,"TUBE-1",          1807,  -3.50742E-03,  -3.56342E-03,   137.500E-03,NA,NA,"",   5.00000E-03,            0.,   137.500E-03,            0.,            0.
C:/ALETube/PressureUpdate/LargeStep/DeformErode/JobErode.odb,Step-1,Increment      0: Step Time =,    0.000,"TUBE-1",          2030,  -2.92791E-03,  -4.05307E-03,   150.000E-03,NA,NA,"",   5.00000E-03,            0.,   150.000E-03,            0.,            0.
C:/ALETube/PressureUpdate/LargeStep/DeformErode/JobErode.odb,Step-1,Increment      0: Step Time =,    0.000,"TUBE-1",          1971,  -3.50742E-03,  -3.56342E-03,   150.000E-03,NA,NA,"",   5.00000E-03,            0.,   150.000E-03,            0.,            0.
C:/ALETube/PressureUpdate/LargeStep/DeformErode/JobErode.odb,Step-1,Increment      0: Step Time =,    0.000,"TUBE-1",          2194,  -2.92791E-03,  -4.05307E-03,   162.500E-03,NA,NA,"",   5.00000E-03,            0.,   162.500E-03,            0.,            0.
C:/ALETube/PressureUpdate/LargeStep/DeformErode/JobErode.odb,Step-1,Increment      0: Step Time =,    0.000,"TUBE-1",          2135,  -3.50742E-03,  -3.56342E-03,   162.500E-03,NA,NA,"",   5.00000E-03,            0.,   162.500E-03,            0.,            0.
C:/ALETube/PressureUpdate/LargeStep/DeformErode/JobErode.odb,Step-1,Increment      0: Step Time =,    0.000,"TUBE-1",          2358,  -2.92791E-03,  -4.05307E-03,   175.000E-03,NA,NA,"",   5.00000E-03,            0.,   175.000E-03,            0.,            0.
C:/ALETube/PressureUpdate/LargeStep/DeformErode/JobErode.odb,Step-1,Increment      0: Step Time =,    0.000,"TUBE-1",          2299,  -3.50742E-03,  -3.56342E-03,   175.000E-03,NA,NA,"",   5.00000E-03,            0.,   175.000E-03,            0.,            0.
C:/ALETube/PressureUpdate/LargeStep/DeformErode/JobErode.odb,Step-1,Increment      0: Step Time =,    0.000,"TUBE-1",          2463,  -3.50742E-03,  -3.56342E-03,     187.5E-03,NA,NA,"",   5.00000E-03,            0.,     187.5E-03,            0.,            0.
C:/ALETube/PressureUpdate/LargeStep/DeformErode/JobErode.odb,Step-1,Increment      0: Step Time =,    0.000,"TUBE-1",          2522,  -2.92791E-03,  -4.05307E-03,     187.5E-03,NA,NA,"",   5.00000E-03,            0.,     187.5E-03,            0.,            0.
C:/ALETube/PressureUpdate/LargeStep/DeformErode/JobErode.odb,Step-1,Increment      0: Step Time =,    0.000,"TUBE-1",          2686,  -2.92791E-03,  -4.05307E-03,   200.000E-03,NA,NA,"",   5.00000E-03,            0.,   200.000E-03,            0.,            0.
C:/ALETube/PressureUpdate/LargeStep/DeformErode/JobErode.odb,Step-1,Increment      0: Step Time =,    0.000,"TUBE-1",          2627,  -3.50742E-03,  -3.56342E-03,   200.000E-03,NA,NA,"",   5.00000E-03,            0.,   200.000E-03,            0.,            0.
C:/ALETube/PressureUpdate/LargeStep/DeformErode/JobErode.odb,Step-1,Increment      0: Step Time =,    0.000,"TUBE-1",          2850,  -2.92791E-03,  -4.05307E-03,   212.500E-03,NA,NA,"",   5.00000E-03,            0.,   212.500E-03,            0.,            0.
C:/ALETube/PressureUpdate/LargeStep/DeformErode/JobErode.odb,Step-1,Increment      0: Step Time =,    0.000,"TUBE-1",          2791,  -3.50742E-03,  -3.56342E-03,   212.500E-03,NA,NA,"",   5.00000E-03,            0.,   212.500E-03,            0.,            0.
C:/ALETube/PressureUpdate/LargeStep/DeformErode/JobErode.odb,Step-1,Increment      0: Step Time =,    0.000,"TUBE-1",          3014,  -2.92791E-03,  -4.05307E-03,   225.000E-03,NA,NA,"",   5.00000E-03,            0.,   225.000E-03,            0.,            0.
C:/ALETube/PressureUpdate/LargeStep/DeformErode/JobErode.odb,Step-1,Increment      0: Step Time =,    0.000,"TUBE-1",          2955,  -3.50742E-03,  -3.56342E-03,   225.000E-03,NA,NA,"",   5.00000E-03,            0.,   225.000E-03,            0.,            0.
C:/ALETube/PressureUpdate/LargeStep/DeformErode/JobErode.odb,Step-1,Increment      0: Step Time =,    0.000,"TUBE-1",          3178,  -2.92791E-03,  -4.05307E-03,   237.500E-03,NA,NA,"",   5.00000E-03,            0.,   237.500E-03,            0.,            0.
C:/ALETube/PressureUpdate/LargeStep/DeformErode/JobErode.odb,Step-1,Increment      0: Step Time =,    0.000,"TUBE-1",          3119,  -3.50742E-03,  -3.56342E-03,   237.500E-03,NA,NA,"",   5.00000E-03,            0.,   237.500E-03,            0.,            0.
C:/ALETube/PressureUpdate/LargeStep/DeformErode/JobErode.odb,Step-1,Increment      0: Step Time =,    0.000,"TUBE-1",          3283,  -3.50742E-03,  -3.56342E-03,      250.E-03,NA,NA,"",   5.00000E-03,            0.,      250.E-03,            0.,            0.
C:/ALETube/PressureUpdate/LargeStep/DeformErode/JobErode.odb,Step-1,Increment      0: Step Time =,    0.000,"TUBE-1",          3342,  -2.92791E-03,  -4.05307E-03,      250.E-03,NA,NA,"",   5.00000E-03,            0.,      250.E-03,            0.,            0.
C:/ALETube/PressureUpdate/LargeStep/DeformErode/JobErode.odb,Step-1,Increment      0: Step Time =,    0.000,"TUBE-1",          3506,  -2.92791E-03,  -4.05307E-03,   262.500E-03,NA,NA,"",   5.00000E-03,            0.,   262.500E-03,            0.,            0.
C:/ALETube/PressureUpdate/LargeStep/DeformErode/JobErode.odb,Step-1,Increment      0: Step Time =,    0.000,"TUBE-1",          3447,  -3.50742E-03,  -3.56342E-03,   262.500E-03,NA,NA,"",   5.00000E-03,            0.,   262.500E-03,            0.,            0.
C:/ALETube/PressureUpdate/LargeStep/DeformErode/JobErode.odb,Step-1,Increment      0: Step Time =,    0.000,"TUBE-1",          3670,  -2.92791E-03,  -4.05307E-03,   275.000E-03,NA,NA,"",   5.00000E-03,            0.,   275.000E-03,            0.,            0.
C:/ALETube/PressureUpdate/LargeStep/DeformErode/JobErode.odb,Step-1,Increment      0: Step Time =,    0.000,"TUBE-1",          3611,  -3.50742E-03,  -3.56342E-03,   275.000E-03,NA,NA,"",   5.00000E-03,            0.,   275.000E-03,            0.,            0.
C:/ALETube/PressureUpdate/LargeStep/DeformErode/JobErode.odb,Step-1,Increment      0: Step Time =,    0.000,"TUBE-1",          3834,  -2.92791E-03,  -4.05307E-03,   287.500E-03,NA,NA,"",   5.00000E-03,            0.,   287.500E-03,            0.,            0.
C:/ALETube/PressureUpdate/LargeStep/DeformErode/JobErode.odb,Step-1,Increment      0: Step Time =,    0.000,"TUBE-1",          3775,  -3.50742E-03,  -3.56342E-03,   287.500E-03,NA,NA,"",   5.00000E-03,            0.,   287.500E-03,            0.,            0.
C:/ALETube/PressureUpdate/LargeStep/DeformErode/JobErode.odb,Step-1,Increment      0: Step Time =,    0.000,"TUBE-1",          3998,  -2.92791E-03,  -4.05307E-03,   300.000E-03,NA,NA,"",   5.00000E-03,            0.,   300.000E-03,            0.,            0.
C:/ALETube/PressureUpdate/LargeStep/DeformErode/JobErode.odb,Step-1,Increment      0: Step Time =,    0.000,"TUBE-1",          3939,  -3.50742E-03,  -3.56342E-03,   300.000E-03,NA,NA,"",   5.00000E-03,            0.,   300.000E-03,            0.,            0.
C:/ALETube/PressureUpdate/LargeStep/DeformErode/JobErode.odb,Step-1,Increment      0: Step Time =,    0.000,"TUBE-1",          4103,  -3.50742E-03,  -3.56342E-03,     312.5E-03,NA,NA,"",   5.00000E-03,            0.,     312.5E-03,            0.,            0.
C:/ALETube/PressureUpdate/LargeStep/DeformErode/JobErode.odb,Step-1,Increment      0: Step Time =,    0.000,"TUBE-1",          4162,  -2.92791E-03,  -4.05307E-03,     312.5E-03,NA,NA,"",   5.00000E-03,            0.,     312.5E-03,            0.,            0.
C:/ALETube/PressureUpdate/LargeStep/DeformErode/JobErode.odb,Step-1,Increment      0: Step Time =,    0.000,"TUBE-1",          4326,  -2.92791E-03,  -4.05307E-03,   325.000E-03,NA,NA,"",   5.00000E-03,            0.,   325.000E-03,            0.,            0.
C:/ALETube/PressureUpdate/LargeStep/DeformErode/JobErode.odb,Step-1,Increment      0: Step Time =,    0.000,"TUBE-1",          4267,  -3.50742E-03,  -3.56342E-03,   325.000E-03,NA,NA,"",   5.00000E-03,            0.,   325.000E-03,            0.,            0.
C:/ALETube/PressureUpdate/LargeStep/DeformErode/JobErode.odb,Step-1,Increment      0: Step Time =,    0.000,"TUBE-1",          4490,  -2.92791E-03,  -4.05307E-03,   337.500E-03,NA,NA,"",   5.00000E-03,            0.,   337.500E-03,            0.,            0.
C:/ALETube/PressureUpdate/LargeStep/DeformErode/JobErode.odb,Step-1,Increment      0: Step Time =,    0.000,"TUBE-1",          4431,  -3.50742E-03,  -3.56342E-03,   337.500E-03,NA,NA,"",   5.00000E-03,            0.,   337.500E-03,            0.,            0.
C:/ALETube/PressureUpdate/LargeStep/DeformErode/JobErode.odb,Step-1,Increment      0: Step Time =,    0.000,"TUBE-1",          4654,  -2.92791E-03,  -4.05307E-03,   350.000E-03,NA,NA,"",   5.00000E-03,            0.,   350.000E-03,            0.,            0.
C:/ALETube/PressureUpdate/LargeStep/DeformErode/JobErode.odb,Step-1,Increment      0: Step Time =,    0.000,"TUBE-1",          4595,  -3.50742E-03,  -3.56342E-03,   350.000E-03,NA,NA,"",   5.00000E-03,            0.,   350.000E-03,            0.,            0.
C:/ALETube/PressureUpdate/LargeStep/DeformErode/JobErode.odb,Step-1,Increment      0: Step Time =,    0.000,"TUBE-1",          4818,  -2.92791E-03,  -4.05307E-03,   362.500E-03,NA,NA,"",   5.00000E-03,            0.,   362.500E-03,            0.,            0.
C:/ALETube/PressureUpdate/LargeStep/DeformErode/JobErode.odb,Step-1,Increment      0: Step Time =,    0.000,"TUBE-1",          4759,  -3.50742E-03,  -3.56342E-03,   362.500E-03,NA,NA,"",   5.00000E-03,            0.,   362.500E-03,            0.,            0.
C:/ALETube/PressureUpdate/LargeStep/DeformErode/JobErode.odb,Step-1,Increment      0: Step Time =,    0.000,"TUBE-1",          4923,  -3.50742E-03,  -3.56342E-03,      375.E-03,NA,NA,"",   5.00000E-03,            0.,      375.E-03,            0.,            0.
C:/ALETube/PressureUpdate/LargeStep/DeformErode/JobErode.odb,Step-1,Increment      0: Step Time =,    0.000,"TUBE-1",          4982,  -2.92791E-03,  -4.05307E-03,      375.E-03,NA,NA,"",   5.00000E-03,            0.,      375.E-03,            0.,            0.
C:/ALETube/PressureUpdate/LargeStep/DeformErode/JobErode.odb,Step-1,Increment      0: Step Time =,    0.000,"TUBE-1",          5146,  -2.92791E-03,  -4.05307E-03,   387.500E-03,NA,NA,"",   5.00000E-03,            0.,   387.500E-03,            0.,            0.
C:/ALETube/PressureUpdate/LargeStep/DeformErode/JobErode.odb,Step-1,Increment      0: Step Time =,    0.000,"TUBE-1",          5087,  -3.50742E-03,  -3.56342E-03,   387.500E-03,NA,NA,"",   5.00000E-03,            0.,   387.500E-03,            0.,            0.
C:/ALETube/PressureUpdate/LargeStep/DeformErode/JobErode.odb,Step-1,Increment      0: Step Time =,    0.000,"TUBE-1",          5310,  -2.92791E-03,  -4.05307E-03,   400.000E-03,NA,NA,"",   5.00000E-03,            0.,   400.000E-03,            0.,            0.
C:/ALETube/PressureUpdate/LargeStep/DeformErode/JobErode.odb,Step-1,Increment      0: Step Time =,    0.000,"TUBE-1",          5251,  -3.50742E-03,  -3.56342E-03,   400.000E-03,NA,NA,"",   5.00000E-03,            0.,   400.000E-03,            0.,            0.
C:/ALETube/PressureUpdate/LargeStep/DeformErode/JobErode.odb,Step-1,Increment      0: Step Time =,    0.000,"TUBE-1",          5474,  -2.92791E-03,  -4.05307E-03,   412.500E-03,NA,NA,"",   5.00000E-03,            0.,   412.500E-03,            0.,            0.
C:/ALETube/PressureUpdate/LargeStep/DeformErode/JobErode.odb,Step-1,Increment      0: Step Time =,    0.000,"TUBE-1",          5415,  -3.50742E-03,  -3.56342E-03,   412.500E-03,NA,NA,"",   5.00000E-03,            0.,   412.500E-03,            0.,            0.
C:/ALETube/PressureUpdate/LargeStep/DeformErode/JobErode.odb,Step-1,Increment      0: Step Time =,    0.000,"TUBE-1",          5638,  -2.92791E-03,  -4.05307E-03,   425.000E-03,NA,NA,"",   5.00000E-03,            0.,   425.000E-03,            0.,            0.
C:/ALETube/PressureUpdate/LargeStep/DeformErode/JobErode.odb,Step-1,Increment      0: Step Time =,    0.000,"TUBE-1",          5579,  -3.50742E-03,  -3.56342E-03,   425.000E-03,NA,NA,"",   5.00000E-03,            0.,   425.000E-03,            0.,            0.
C:/ALETube/PressureUpdate/LargeStep/DeformErode/JobErode.odb,Step-1,Increment      0: Step Time =,    0.000,"TUBE-1",          5743,  -3.50742E-03,  -3.56342E-03,     437.5E-03,NA,NA,"",   5.00000E-03,            0.,     437.5E-03,            0.,            0.
C:/ALETube/PressureUpdate/LargeStep/DeformErode/JobErode.odb,Step-1,Increment      0: Step Time =,    0.000,"TUBE-1",          5802,  -2.92791E-03,  -4.05307E-03,     437.5E-03,NA,NA,"",   5.00000E-03,            0.,     437.5E-03,            0.,            0.
C:/ALETube/PressureUpdate/LargeStep/DeformErode/JobErode.odb,Step-1,Increment      0: Step Time =,    0.000,"TUBE-1",          5966,  -2.92791E-03,  -4.05307E-03,   450.000E-03,NA,NA,"",   5.00000E-03,            0.,   450.000E-03,            0.,            0.
C:/ALETube/PressureUpdate/LargeStep/DeformErode/JobErode.odb,Step-1,Increment      0: Step Time =,    0.000,"TUBE-1",          5907,  -3.50742E-03,  -3.56342E-03,   450.000E-03,NA,NA,"",   5.00000E-03,            0.,   450.000E-03,            0.,            0.
C:/ALETube/PressureUpdate/LargeStep/DeformErode/JobErode.odb,Step-1,Increment      0: Step Time =,    0.000,"TUBE-1",          6130,  -2.92791E-03,  -4.05307E-03,   462.500E-03,NA,NA,"",   5.00000E-03,            0.,   462.500E-03,            0.,            0.
C:/ALETube/PressureUpdate/LargeStep/DeformErode/JobErode.odb,Step-1,Increment      0: Step Time =,    0.000,"TUBE-1",          6071,  -3.50742E-03,  -3.56342E-03,   462.500E-03,NA,NA,"",   5.00000E-03,            0.,   462.500E-03,            0.,            0.
C:/ALETube/PressureUpdate/LargeStep/DeformErode/JobErode.odb,Step-1,Increment      0: Step Time =,    0.000,"TUBE-1",          6294,  -2.92791E-03,  -4.05307E-03,   475.000E-03,NA,NA,"",   5.00000E-03,            0.,   475.000E-03,            0.,            0.
C:/ALETube/PressureUpdate/LargeStep/DeformErode/JobErode.odb,Step-1,Increment      0: Step Time =,    0.000,"TUBE-1",          6235,  -3.50742E-03,  -3.56342E-03,   475.000E-03,NA,NA,"",   5.00000E-03,            0.,   475.000E-03,            0.,            0.
C:/ALETube/PressureUpdate/LargeStep/DeformErode/JobErode.odb,Step-1,Increment      0: Step Time =,    0.000,"TUBE-1",          6458,  -2.92791E-03,  -4.05307E-03,   487.500E-03,NA,NA,"",   5.00000E-03,            0.,   487.500E-03,            0.,            0.
C:/ALETube/PressureUpdate/LargeStep/DeformErode/JobErode.odb,Step-1,Increment      0: Step Time =,    0.000,"TUBE-1",          6399,  -3.50742E-03,  -3.56342E-03,   487.500E-03,NA,NA,"",   5.00000E-03,            0.,   487.500E-03,            0.,            0.
C:/ALETube/PressureUpdate/LargeStep/DeformErode/JobErode.odb,Step-1,Increment      0: Step Time =,    0.000,"TUBE-1",          6563,  -3.50742E-03,  -3.56342E-03,      500.E-03,NA,NA,"",   5.00000E-03,            0.,      500.E-03,            0.,            0.
C:/ALETube/PressureUpdate/LargeStep/DeformErode/JobErode.odb,Step-1,Increment      0: Step Time =,    0.000,"TUBE-1",          6622,  -2.92791E-03,  -4.05307E-03,      500.E-03,NA,NA,"",   5.00000E-03,            0.,      500.E-03,            0.,            0.
C:/ALETube/PressureUpdate/LargeStep/DeformErode/JobErode.odb,Step-1,Increment      0: Step Time =,    0.000,"TUBE-1",          6786,  -2.92791E-03,  -4.05307E-03,   512.500E-03,NA,NA,"",   5.00000E-03,            0.,   512.500E-03,            0.,            0.
C:/ALETube/PressureUpdate/LargeStep/DeformErode/JobErode.odb,Step-1,Increment      0: Step Time =,    0.000,"TUBE-1",          6727,  -3.50742E-03,  -3.56342E-03,   512.500E-03,NA,NA,"",   5.00000E-03,            0.,   512.500E-03,            0.,            0.
C:/ALETube/PressureUpdate/LargeStep/DeformErode/JobErode.odb,Step-1,Increment      0: Step Time =,    0.000,"TUBE-1",          6950,  -2.92791E-03,  -4.05307E-03,   525.000E-03,NA,NA,"",   5.00000E-03,            0.,   525.000E-03,            0.,            0.
C:/ALETube/PressureUpdate/LargeStep/DeformErode/JobErode.odb,Step-1,Increment      0: Step Time =,    0.000,"TUBE-1",          6891,  -3.50742E-03,  -3.56342E-03,   525.000E-03,NA,NA,"",   5.00000E-03,            0.,   525.000E-03,            0.,            0.
C:/ALETube/PressureUpdate/LargeStep/DeformErode/JobErode.odb,Step-1,Increment      0: Step Time =,    0.000,"TUBE-1",          7114,  -2.92791E-03,  -4.05307E-03,   537.500E-03,NA,NA,"",   5.00000E-03,            0.,   537.500E-03,            0.,            0.
C:/ALETube/PressureUpdate/LargeStep/DeformErode/JobErode.odb,Step-1,Increment      0: Step Time =,    0.000,"TUBE-1",          7055,  -3.50742E-03,  -3.56342E-03,   537.500E-03,NA,NA,"",   5.00000E-03,            0.,   537.500E-03,            0.,            0.
C:/ALETube/PressureUpdate/LargeStep/DeformErode/JobErode.odb,Step-1,Increment      0: Step Time =,    0.000,"TUBE-1",          7278,  -2.92791E-03,  -4.05307E-03,   550.000E-03,NA,NA,"",   5.00000E-03,            0.,   550.000E-03,            0.,            0.
C:/ALETube/PressureUpdate/LargeStep/DeformErode/JobErode.odb,Step-1,Increment      0: Step Time =,    0.000,"TUBE-1",          7219,  -3.50742E-03,  -3.56342E-03,   550.000E-03,NA,NA,"",   5.00000E-03,            0.,   550.000E-03,            0.,            0.
C:/ALETube/PressureUpdate/LargeStep/DeformErode/JobErode.odb,Step-1,Increment      0: Step Time =,    0.000,"TUBE-1",          7383,  -3.50742E-03,  -3.56342E-03,     562.5E-03,NA,NA,"",   5.00000E-03,            0.,     562.5E-03,            0.,            0.
C:/ALETube/PressureUpdate/LargeStep/DeformErode/JobErode.odb,Step-1,Increment      0: Step Time =,    0.000,"TUBE-1",          7442,  -2.92791E-03,  -4.05307E-03,     562.5E-03,NA,NA,"",   5.00000E-03,            0.,     562.5E-03,            0.,            0.
C:/ALETube/PressureUpdate/LargeStep/DeformErode/JobErode.odb,Step-1,Increment      0: Step Time =,    0.000,"TUBE-1",          7606,  -2.92791E-03,  -4.05307E-03,   575.000E-03,NA,NA,"",   5.00000E-03,            0.,   575.000E-03,            0.,            0.
C:/ALETube/PressureUpdate/LargeStep/DeformErode/JobErode.odb,Step-1,Increment      0: Step Time =,    0.000,"TUBE-1",          7547,  -3.50742E-03,  -3.56342E-03,   575.000E-03,NA,NA,"",   5.00000E-03,            0.,   575.000E-03,            0.,            0.
C:/ALETube/PressureUpdate/LargeStep/DeformErode/JobErode.odb,Step-1,Increment      0: Step Time =,    0.000,"TUBE-1",          7770,  -2.92791E-03,  -4.05307E-03,   587.500E-03,NA,NA,"",   5.00000E-03,            0.,   587.500E-03,            0.,            0.
C:/ALETube/PressureUpdate/LargeStep/DeformErode/JobErode.odb,Step-1,Increment      0: Step Time =,    0.000,"TUBE-1",          7711,  -3.50742E-03,  -3.56342E-03,   587.500E-03,NA,NA,"",   5.00000E-03,            0.,   587.500E-03,            0.,            0.
C:/ALETube/PressureUpdate/LargeStep/DeformErode/JobErode.odb,Step-1,Increment      0: Step Time =,    0.000,"TUBE-1",          7934,  -2.92791E-03,  -4.05307E-03,   600.000E-03,NA,NA,"",   5.00000E-03,            0.,   600.000E-03,            0.,            0.
C:/ALETube/PressureUpdate/LargeStep/DeformErode/JobErode.odb,Step-1,Increment      0: Step Time =,    0.000,"TUBE-1",          7875,  -3.50742E-03,  -3.56342E-03,   600.000E-03,NA,NA,"",   5.00000E-03,            0.,   600.000E-03,            0.,            0.
C:/ALETube/PressureUpdate/LargeStep/DeformErode/JobErode.odb,Step-1,Increment      0: Step Time =,    0.000,"TUBE-1",          8098,  -2.92791E-03,  -4.05307E-03,   612.500E-03,NA,NA,"",   5.00000E-03,            0.,   612.500E-03,            0.,            0.
C:/ALETube/PressureUpdate/LargeStep/DeformErode/JobErode.odb,Step-1,Increment      0: Step Time =,    0.000,"TUBE-1",          8039,  -3.50742E-03,  -3.56342E-03,   612.500E-03,NA,NA,"",   5.00000E-03,            0.,   612.500E-03,            0.,            0.
C:/ALETube/PressureUpdate/LargeStep/DeformErode/JobErode.odb,Step-1,Increment      0: Step Time =,    0.000,"TUBE-1",          8203,  -3.50742E-03,  -3.56342E-03,      625.E-03,NA,NA,"",   5.00000E-03,            0.,      625.E-03,            0.,            0.
C:/ALETube/PressureUpdate/LargeStep/DeformErode/JobErode.odb,Step-1,Increment      0: Step Time =,    0.000,"TUBE-1",          8262,  -2.92791E-03,  -4.05307E-03,      625.E-03,NA,NA,"",   5.00000E-03,            0.,      625.E-03,            0.,            0.
C:/ALETube/PressureUpdate/LargeStep/DeformErode/JobErode.odb,Step-1,Increment      0: Step Time =,    0.000,"TUBE-1",          8426,  -2.92791E-03,  -4.05307E-03,   637.500E-03,NA,NA,"",   5.00000E-03,            0.,   637.500E-03,            0.,            0.
C:/ALETube/PressureUpdate/LargeStep/DeformErode/JobErode.odb,Step-1,Increment      0: Step Time =,    0.000,"TUBE-1",          8367,  -3.50742E-03,  -3.56342E-03,   637.500E-03,NA,NA,"",   5.00000E-03,            0.,   637.500E-03,            0.,            0.
C:/ALETube/PressureUpdate/LargeStep/DeformErode/JobErode.odb,Step-1,Increment      0: Step Time =,    0.000,"TUBE-1",          8590,  -2.92791E-03,  -4.05307E-03,   650.000E-03,NA,NA,"",   5.00000E-03,            0.,   650.000E-03,            0.,            0.
C:/ALETube/PressureUpdate/LargeStep/DeformErode/JobErode.odb,Step-1,Increment      0: Step Time =,    0.000,"TUBE-1",          8531,  -3.50742E-03,  -3.56342E-03,   650.000E-03,NA,NA,"",   5.00000E-03,            0.,   650.000E-03,            0.,            0.
C:/ALETube/PressureUpdate/LargeStep/DeformErode/JobErode.odb,Step-1,Increment      0: Step Time =,    0.000,"TUBE-1",          8754,  -2.92791E-03,  -4.05307E-03,   662.500E-03,NA,NA,"",   5.00000E-03,            0.,   662.500E-03,            0.,            0.
C:/ALETube/PressureUpdate/LargeStep/DeformErode/JobErode.odb,Step-1,Increment      0: Step Time =,    0.000,"TUBE-1",          8695,  -3.50742E-03,  -3.56342E-03,   662.500E-03,NA,NA,"",   5.00000E-03,            0.,   662.500E-03,            0.,            0.
C:/ALETube/PressureUpdate/LargeStep/DeformErode/JobErode.odb,Step-1,Increment      0: Step Time =,    0.000,"TUBE-1",          8918,  -2.92791E-03,  -4.05307E-03,   675.000E-03,NA,NA,"",   5.00000E-03,            0.,   675.000E-03,            0.,            0.
C:/ALETube/PressureUpdate/LargeStep/DeformErode/JobErode.odb,Step-1,Increment      0: Step Time =,    0.000,"TUBE-1",          8859,  -3.50742E-03,  -3.56342E-03,   675.000E-03,NA,NA,"",   5.00000E-03,            0.,   675.000E-03,            0.,            0.
C:/ALETube/PressureUpdate/LargeStep/DeformErode/JobErode.odb,Step-1,Increment      0: Step Time =,    0.000,"TUBE-1",          9023,  -3.50742E-03,  -3.56342E-03,     687.5E-03,NA,NA,"",   5.00000E-03,            0.,     687.5E-03,            0.,            0.
C:/ALETube/PressureUpdate/LargeStep/DeformErode/JobErode.odb,Step-1,Increment      0: Step Time =,    0.000,"TUBE-1",          9082,  -2.92791E-03,  -4.05307E-03,     687.5E-03,NA,NA,"",   5.00000E-03,            0.,     687.5E-03,            0.,            0.
C:/ALETube/PressureUpdate/LargeStep/DeformErode/JobErode.odb,Step-1,Increment      0: Step Time =,    0.000,"TUBE-1",          9246,  -2.92791E-03,  -4.05307E-03,   700.000E-03,NA,NA,"",   5.00000E-03,            0.,   700.000E-03,            0.,            0.
C:/ALETube/PressureUpdate/LargeStep/DeformErode/JobErode.odb,Step-1,Increment      0: Step Time =,    0.000,"TUBE-1",          9187,  -3.50742E-03,  -3.56342E-03,   700.000E-03,NA,NA,"",   5.00000E-03,            0.,   700.000E-03,            0.,            0.
C:/ALETube/PressureUpdate/LargeStep/DeformErode/JobErode.odb,Step-1,Increment      0: Step Time =,    0.000,"TUBE-1",          9410,  -2.92791E-03,  -4.05307E-03,   712.500E-03,NA,NA,"",   5.00000E-03,            0.,   712.500E-03,            0.,            0.
C:/ALETube/PressureUpdate/LargeStep/DeformErode/JobErode.odb,Step-1,Increment      0: Step Time =,    0.000,"TUBE-1",          9351,  -3.50742E-03,  -3.56342E-03,   712.500E-03,NA,NA,"",   5.00000E-03,            0.,   712.500E-03,            0.,            0.
C:/ALETube/PressureUpdate/LargeStep/DeformErode/JobErode.odb,Step-1,Increment      0: Step Time =,    0.000,"TUBE-1",          9574,  -2.92791E-03,  -4.05307E-03,   725.000E-03,NA,NA,"",   5.00000E-03,            0.,   725.000E-03,            0.,            0.
C:/ALETube/PressureUpdate/LargeStep/DeformErode/JobErode.odb,Step-1,Increment      0: Step Time =,    0.000,"TUBE-1",          9515,  -3.50742E-03,  -3.56342E-03,   725.000E-03,NA,NA,"",   5.00000E-03,            0.,   725.000E-03,            0.,            0.
C:/ALETube/PressureUpdate/LargeStep/DeformErode/JobErode.odb,Step-1,Increment      0: Step Time =,    0.000,"TUBE-1",          9738,  -2.92791E-03,  -4.05307E-03,   737.500E-03,NA,NA,"",   5.00000E-03,            0.,   737.500E-03,            0.,            0.
C:/ALETube/PressureUpdate/LargeStep/DeformErode/JobErode.odb,Step-1,Increment      0: Step Time =,    0.000,"TUBE-1",          9679,  -3.50742E-03,  -3.56342E-03,   737.500E-03,NA,NA,"",   5.00000E-03,            0.,   737.500E-03,            0.,            0.
C:/ALETube/PressureUpdate/LargeStep/DeformErode/JobErode.odb,Step-1,Increment      0: Step Time =,    0.000,"TUBE-1",          9843,  -3.50742E-03,  -3.56342E-03,      750.E-03,NA,NA,"",   5.00000E-03,            0.,      750.E-03,            0.,            0.
C:/ALETube/PressureUpdate/LargeStep/DeformErode/JobErode.odb,Step-1,Increment      0: Step Time =,    0.000,"TUBE-1",          9902,  -2.92791E-03,  -4.05307E-03,      750.E-03,NA,NA,"",   5.00000E-03,            0.,      750.E-03,            0.,            0.
C:/ALETube/PressureUpdate/LargeStep/DeformErode/JobErode.odb,Step-1,Increment      0: Step Time =,    0.000,"TUBE-1",         10066,  -2.92791E-03,  -4.05307E-03,   762.500E-03,NA,NA,"",   5.00000E-03,            0.,   762.500E-03,            0.,            0.
C:/ALETube/PressureUpdate/LargeStep/DeformErode/JobErode.odb,Step-1,Increment      0: Step Time =,    0.000,"TUBE-1",         10007,  -3.50742E-03,  -3.56342E-03,   762.500E-03,NA,NA,"",   5.00000E-03,            0.,   762.500E-03,            0.,            0.
C:/ALETube/PressureUpdate/LargeStep/DeformErode/JobErode.odb,Step-1,Increment      0: Step Time =,    0.000,"TUBE-1",         10230,  -2.92791E-03,  -4.05307E-03,   775.000E-03,NA,NA,"",   5.00000E-03,            0.,   775.000E-03,            0.,            0.
C:/ALETube/PressureUpdate/LargeStep/DeformErode/JobErode.odb,Step-1,Increment      0: Step Time =,    0.000,"TUBE-1",         10171,  -3.50742E-03,  -3.56342E-03,   775.000E-03,NA,NA,"",   5.00000E-03,            0.,   775.000E-03,            0.,            0.
C:/ALETube/PressureUpdate/LargeStep/DeformErode/JobErode.odb,Step-1,Increment      0: Step Time =,    0.000,"TUBE-1",         10394,  -2.92791E-03,  -4.05307E-03,   787.500E-03,NA,NA,"",   5.00000E-03,            0.,   787.500E-03,            0.,            0.
C:/ALETube/PressureUpdate/LargeStep/DeformErode/JobErode.odb,Step-1,Increment      0: Step Time =,    0.000,"TUBE-1",         10335,  -3.50742E-03,  -3.56342E-03,   787.500E-03,NA,NA,"",   5.00000E-03,            0.,   787.500E-03,            0.,            0.
C:/ALETube/PressureUpdate/LargeStep/DeformErode/JobErode.odb,Step-1,Increment      0: Step Time =,    0.000,"TUBE-1",         10558,  -2.92791E-03,  -4.05307E-03,   800.000E-03,NA,NA,"",   5.00000E-03,            0.,   800.000E-03,            0.,            0.
C:/ALETube/PressureUpdate/LargeStep/DeformErode/JobErode.odb,Step-1,Increment      0: Step Time =,    0.000,"TUBE-1",         10499,  -3.50742E-03,  -3.56342E-03,   800.000E-03,NA,NA,"",   5.00000E-03,            0.,   800.000E-03,            0.,            0.
C:/ALETube/PressureUpdate/LargeStep/DeformErode/JobErode.odb,Step-1,Increment      0: Step Time =,    0.000,"TUBE-1",         10663,  -3.50742E-03,  -3.56342E-03,     812.5E-03,NA,NA,"",   5.00000E-03,            0.,     812.5E-03,            0.,            0.
C:/ALETube/PressureUpdate/LargeStep/DeformErode/JobErode.odb,Step-1,Increment      0: Step Time =,    0.000,"TUBE-1",         10722,  -2.92791E-03,  -4.05307E-03,     812.5E-03,NA,NA,"",   5.00000E-03,            0.,     812.5E-03,            0.,            0.
C:/ALETube/PressureUpdate/LargeStep/DeformErode/JobErode.odb,Step-1,Increment      0: Step Time =,    0.000,"TUBE-1",         10886,  -2.92791E-03,  -4.05307E-03,   825.000E-03,NA,NA,"",   5.00000E-03,            0.,   825.000E-03,            0.,            0.
C:/ALETube/PressureUpdate/LargeStep/DeformErode/JobErode.odb,Step-1,Increment      0: Step Time =,    0.000,"TUBE-1",         10827,  -3.50742E-03,  -3.56342E-03,   825.000E-03,NA,NA,"",   5.00000E-03,            0.,   825.000E-03,            0.,            0.
C:/ALETube/PressureUpdate/LargeStep/DeformErode/JobErode.odb,Step-1,Increment      0: Step Time =,    0.000,"TUBE-1",         11050,  -2.92791E-03,  -4.05307E-03,   837.500E-03,NA,NA,"",   5.00000E-03,            0.,   837.500E-03,            0.,            0.
C:/ALETube/PressureUpdate/LargeStep/DeformErode/JobErode.odb,Step-1,Increment      0: Step Time =,    0.000,"TUBE-1",         10991,  -3.50742E-03,  -3.56342E-03,   837.500E-03,NA,NA,"",   5.00000E-03,            0.,   837.500E-03,            0.,            0.
C:/ALETube/PressureUpdate/LargeStep/DeformErode/JobErode.odb,Step-1,Increment      0: Step Time =,    0.000,"TUBE-1",         11214,  -2.92791E-03,  -4.05307E-03,   850.000E-03,NA,NA,"",   5.00000E-03,            0.,   850.000E-03,            0.,            0.
C:/ALETube/PressureUpdate/LargeStep/DeformErode/JobErode.odb,Step-1,Increment      0: Step Time =,    0.000,"TUBE-1",         11155,  -3.50742E-03,  -3.56342E-03,   850.000E-03,NA,NA,"",   5.00000E-03,            0.,   850.000E-03,            0.,            0.
C:/ALETube/PressureUpdate/LargeStep/DeformErode/JobErode.odb,Step-1,Increment      0: Step Time =,    0.000,"TUBE-1",         11378,  -2.92791E-03,  -4.05307E-03,   862.500E-03,NA,NA,"",   5.00000E-03,            0.,   862.500E-03,            0.,            0.
C:/ALETube/PressureUpdate/LargeStep/DeformErode/JobErode.odb,Step-1,Increment      0: Step Time =,    0.000,"TUBE-1",         11319,  -3.50742E-03,  -3.56342E-03,   862.500E-03,NA,NA,"",   5.00000E-03,            0.,   862.500E-03,            0.,            0.
C:/ALETube/PressureUpdate/LargeStep/DeformErode/JobErode.odb,Step-1,Increment      0: Step Time =,    0.000,"TUBE-1",         11483,  -3.50742E-03,  -3.56342E-03,      875.E-03,NA,NA,"",   5.00000E-03,            0.,      875.E-03,            0.,            0.
C:/ALETube/PressureUpdate/LargeStep/DeformErode/JobErode.odb,Step-1,Increment      0: Step Time =,    0.000,"TUBE-1",         11542,  -2.92791E-03,  -4.05307E-03,      875.E-03,NA,NA,"",   5.00000E-03,            0.,      875.E-03,            0.,            0.
C:/ALETube/PressureUpdate/LargeStep/DeformErode/JobErode.odb,Step-1,Increment      0: Step Time =,    0.000,"TUBE-1",         11706,  -2.92791E-03,  -4.05307E-03,   887.500E-03,NA,NA,"",   5.00000E-03,            0.,   887.500E-03,            0.,            0.
C:/ALETube/PressureUpdate/LargeStep/DeformErode/JobErode.odb,Step-1,Increment      0: Step Time =,    0.000,"TUBE-1",         11647,  -3.50742E-03,  -3.56342E-03,   887.500E-03,NA,NA,"",   5.00000E-03,            0.,   887.500E-03,            0.,            0.
C:/ALETube/PressureUpdate/LargeStep/DeformErode/JobErode.odb,Step-1,Increment      0: Step Time =,    0.000,"TUBE-1",         11870,  -2.92791E-03,  -4.05307E-03,   900.000E-03,NA,NA,"",   5.00000E-03,            0.,   900.000E-03,            0.,            0.
C:/ALETube/PressureUpdate/LargeStep/DeformErode/JobErode.odb,Step-1,Increment      0: Step Time =,    0.000,"TUBE-1",         11811,  -3.50742E-03,  -3.56342E-03,   900.000E-03,NA,NA,"",   5.00000E-03,            0.,   900.000E-03,            0.,            0.
C:/ALETube/PressureUpdate/LargeStep/DeformErode/JobErode.odb,Step-1,Increment      0: Step Time =,    0.000,"TUBE-1",         12034,  -2.92791E-03,  -4.05307E-03,   912.500E-03,NA,NA,"",   5.00000E-03,            0.,   912.500E-03,            0.,            0.
C:/ALETube/PressureUpdate/LargeStep/DeformErode/JobErode.odb,Step-1,Increment      0: Step Time =,    0.000,"TUBE-1",         11975,  -3.50742E-03,  -3.56342E-03,   912.500E-03,NA,NA,"",   5.00000E-03,            0.,   912.500E-03,            0.,            0.
C:/ALETube/PressureUpdate/LargeStep/DeformErode/JobErode.odb,Step-1,Increment      0: Step Time =,    0.000,"TUBE-1",         12198,  -2.92791E-03,  -4.05307E-03,   925.000E-03,NA,NA,"",   5.00000E-03,            0.,   925.000E-03,            0.,            0.
C:/ALETube/PressureUpdate/LargeStep/DeformErode/JobErode.odb,Step-1,Increment      0: Step Time =,    0.000,"TUBE-1",         12139,  -3.50742E-03,  -3.56342E-03,   925.000E-03,NA,NA,"",   5.00000E-03,            0.,   925.000E-03,            0.,            0.
C:/ALETube/PressureUpdate/LargeStep/DeformErode/JobErode.odb,Step-1,Increment      0: Step Time =,    0.000,"TUBE-1",         12303,  -3.50742E-03,  -3.56342E-03,     937.5E-03,NA,NA,"",   5.00000E-03,            0.,     937.5E-03,            0.,            0.
C:/ALETube/PressureUpdate/LargeStep/DeformErode/JobErode.odb,Step-1,Increment      0: Step Time =,    0.000,"TUBE-1",         12362,  -2.92791E-03,  -4.05307E-03,     937.5E-03,NA,NA,"",   5.00000E-03,            0.,     937.5E-03,            0.,            0.
C:/ALETube/PressureUpdate/LargeStep/DeformErode/JobErode.odb,Step-1,Increment      0: Step Time =,    0.000,"TUBE-1",         12526,  -2.92791E-03,  -4.05307E-03,   950.000E-03,NA,NA,"",   5.00000E-03,            0.,   950.000E-03,            0.,            0.
C:/ALETube/PressureUpdate/LargeStep/DeformErode/JobErode.odb,Step-1,Increment      0: Step Time =,    0.000,"TUBE-1",         12467,  -3.50742E-03,  -3.56342E-03,   950.000E-03,NA,NA,"",   5.00000E-03,            0.,   950.000E-03,            0.,            0.
C:/ALETube/PressureUpdate/LargeStep/DeformErode/JobErode.odb,Step-1,Increment      0: Step Time =,    0.000,"TUBE-1",         12690,  -2.92791E-03,  -4.05307E-03,   962.500E-03,NA,NA,"",   5.00000E-03,            0.,   962.500E-03,            0.,            0.
C:/ALETube/PressureUpdate/LargeStep/DeformErode/JobErode.odb,Step-1,Increment      0: Step Time =,    0.000,"TUBE-1",         12631,  -3.50742E-03,  -3.56342E-03,   962.500E-03,NA,NA,"",   5.00000E-03,            0.,   962.500E-03,            0.,            0.
C:/ALETube/PressureUpdate/LargeStep/DeformErode/JobErode.odb,Step-1,Increment      0: Step Time =,    0.000,"TUBE-1",         12854,  -2.92791E-03,  -4.05307E-03,   975.000E-03,NA,NA,"",   5.00000E-03,            0.,   975.000E-03,            0.,            0.
C:/ALETube/PressureUpdate/LargeStep/DeformErode/JobErode.odb,Step-1,Increment      0: Step Time =,    0.000,"TUBE-1",         12795,  -3.50742E-03,  -3.56342E-03,   975.000E-03,NA,NA,"",   5.00000E-03,            0.,   975.000E-03,            0.,            0.
C:/ALETube/PressureUpdate/LargeStep/DeformErode/JobErode.odb,Step-1,Increment      0: Step Time =,    0.000,"TUBE-1",         13018,  -2.92791E-03,  -4.05307E-03,   987.500E-03,NA,NA,"",   5.00000E-03,            0.,   987.500E-03,            0.,            0.
C:/ALETube/PressureUpdate/LargeStep/DeformErode/JobErode.odb,Step-1,Increment      0: Step Time =,    0.000,"TUBE-1",         12959,  -3.50742E-03,  -3.56342E-03,   987.500E-03,NA,NA,"",   5.00000E-03,            0.,   987.500E-03,            0.,            0.
C:/ALETube/PressureUpdate/LargeStep/DeformErode/JobErode.odb,Step-1,Increment      0: Step Time =,    0.000,"TUBE-1",         13123,  -3.50742E-03,  -3.56342E-03,            1.,NA,NA,"",   5.00000E-03,            0.,            1.,            0.,            0.
C:/ALETube/PressureUpdate/LargeStep/DeformErode/JobErode.odb,Step-1,Increment      0: Step Time =,    0.000,"TUBE-1",         13182,  -2.92791E-03,  -4.05307E-03,            1.,NA,NA,"",   5.00000E-03,            0.,            1.,            0.,            0.
C:/ALETube/PressureUpdate/LargeStep/DeformErode/JobErode.odb,Step-1,Increment      0: Step Time =,    0.000,"TUBE-1",         13346,  -2.92791E-03,  -4.05307E-03,       1.01250,NA,NA,"",   5.00000E-03,            0.,       1.01250,            0.,            0.
C:/ALETube/PressureUpdate/LargeStep/DeformErode/JobErode.odb,Step-1,Increment      0: Step Time =,    0.000,"TUBE-1",         13287,  -3.50742E-03,  -3.56342E-03,       1.01250,NA,NA,"",   5.00000E-03,            0.,       1.01250,            0.,            0.
C:/ALETube/PressureUpdate/LargeStep/DeformErode/JobErode.odb,Step-1,Increment      0: Step Time =,    0.000,"TUBE-1",         13510,  -2.92791E-03,  -4.05307E-03,       1.02500,NA,NA,"",   5.00000E-03,            0.,       1.02500,            0.,            0.
C:/ALETube/PressureUpdate/LargeStep/DeformErode/JobErode.odb,Step-1,Increment      0: Step Time =,    0.000,"TUBE-1",         13451,  -3.50742E-03,  -3.56342E-03,       1.02500,NA,NA,"",   5.00000E-03,            0.,       1.02500,            0.,            0.
C:/ALETube/PressureUpdate/LargeStep/DeformErode/JobErode.odb,Step-1,Increment      0: Step Time =,    0.000,"TUBE-1",         13615,  -3.50742E-03,  -3.56342E-03,       1.03750,NA,NA,"",   5.00000E-03,            0.,       1.03750,            0.,            0.
C:/ALETube/PressureUpdate/LargeStep/DeformErode/JobErode.odb,Step-1,Increment      0: Step Time =,    0.000,"TUBE-1",         13674,  -2.92791E-03,  -4.05307E-03,       1.03750,NA,NA,"",   5.00000E-03,            0.,       1.03750,            0.,            0.
C:/ALETube/PressureUpdate/LargeStep/DeformErode/JobErode.odb,Step-1,Increment      0: Step Time =,    0.000,"TUBE-1",         13838,  -2.92791E-03,  -4.05307E-03,       1.05000,NA,NA,"",   5.00000E-03,            0.,       1.05000,            0.,            0.
C:/ALETube/PressureUpdate/LargeStep/DeformErode/JobErode.odb,Step-1,Increment      0: Step Time =,    0.000,"TUBE-1",         13779,  -3.50742E-03,  -3.56342E-03,       1.05000,NA,NA,"",   5.00000E-03,            0.,       1.05000,            0.,            0.
C:/ALETube/PressureUpdate/LargeStep/DeformErode/JobErode.odb,Step-1,Increment      0: Step Time =,    0.000,"TUBE-1",         14002,  -2.92791E-03,  -4.05307E-03,        1.0625,NA,NA,"",   5.00000E-03,            0.,        1.0625,            0.,            0.
C:/ALETube/PressureUpdate/LargeStep/DeformErode/JobErode.odb,Step-1,Increment      0: Step Time =,    0.000,"TUBE-1",         13943,  -3.50742E-03,  -3.56342E-03,        1.0625,NA,NA,"",   5.00000E-03,            0.,        1.0625,            0.,            0.
C:/ALETube/PressureUpdate/LargeStep/DeformErode/JobErode.odb,Step-1,Increment      0: Step Time =,    0.000,"TUBE-1",         14107,  -3.50742E-03,  -3.56342E-03,       1.07500,NA,NA,"",   5.00000E-03,            0.,       1.07500,            0.,            0.
C:/ALETube/PressureUpdate/LargeStep/DeformErode/JobErode.odb,Step-1,Increment      0: Step Time =,    0.000,"TUBE-1",         14166,  -2.92791E-03,  -4.05307E-03,       1.07500,NA,NA,"",   5.00000E-03,            0.,       1.07500,            0.,            0.
C:/ALETube/PressureUpdate/LargeStep/DeformErode/JobErode.odb,Step-1,Increment      0: Step Time =,    0.000,"TUBE-1",         14330,  -2.92791E-03,  -4.05307E-03,       1.08750,NA,NA,"",   5.00000E-03,            0.,       1.08750,            0.,            0.
C:/ALETube/PressureUpdate/LargeStep/DeformErode/JobErode.odb,Step-1,Increment      0: Step Time =,    0.000,"TUBE-1",         14271,  -3.50742E-03,  -3.56342E-03,       1.08750,NA,NA,"",   5.00000E-03,            0.,       1.08750,            0.,            0.
C:/ALETube/PressureUpdate/LargeStep/DeformErode/JobErode.odb,Step-1,Increment      0: Step Time =,    0.000,"TUBE-1",         14494,  -2.92791E-03,  -4.05307E-03,       1.10000,NA,NA,"",   5.00000E-03,            0.,       1.10000,            0.,            0.
C:/ALETube/PressureUpdate/LargeStep/DeformErode/JobErode.odb,Step-1,Increment      0: Step Time =,    0.000,"TUBE-1",         14435,  -3.50742E-03,  -3.56342E-03,       1.10000,NA,NA,"",   5.00000E-03,            0.,       1.10000,            0.,            0.
C:/ALETube/PressureUpdate/LargeStep/DeformErode/JobErode.odb,Step-1,Increment      0: Step Time =,    0.000,"TUBE-1",         14658,  -2.92791E-03,  -4.05307E-03,       1.11250,NA,NA,"",   5.00000E-03,            0.,       1.11250,            0.,            0.
C:/ALETube/PressureUpdate/LargeStep/DeformErode/JobErode.odb,Step-1,Increment      0: Step Time =,    0.000,"TUBE-1",         14599,  -3.50742E-03,  -3.56342E-03,       1.11250,NA,NA,"",   5.00000E-03,            0.,       1.11250,            0.,            0.
C:/ALETube/PressureUpdate/LargeStep/DeformErode/JobErode.odb,Step-1,Increment      0: Step Time =,    0.000,"TUBE-1",         14822,  -2.92791E-03,  -4.05307E-03,         1.125,NA,NA,"",   5.00000E-03,            0.,         1.125,            0.,            0.
C:/ALETube/PressureUpdate/LargeStep/DeformErode/JobErode.odb,Step-1,Increment      0: Step Time =,    0.000,"TUBE-1",         14763,  -3.50742E-03,  -3.56342E-03,         1.125,NA,NA,"",   5.00000E-03,            0.,         1.125,            0.,            0.
C:/ALETube/PressureUpdate/LargeStep/DeformErode/JobErode.odb,Step-1,Increment      0: Step Time =,    0.000,"TUBE-1",         14927,  -3.50742E-03,  -3.56342E-03,       1.13750,NA,NA,"",   5.00000E-03,            0.,       1.13750,            0.,            0.
C:/ALETube/PressureUpdate/LargeStep/DeformErode/JobErode.odb,Step-1,Increment      0: Step Time =,    0.000,"TUBE-1",         14986,  -2.92791E-03,  -4.05307E-03,       1.13750,NA,NA,"",   5.00000E-03,            0.,       1.13750,            0.,            0.
C:/ALETube/PressureUpdate/LargeStep/DeformErode/JobErode.odb,Step-1,Increment      0: Step Time =,    0.000,"TUBE-1",         15150,  -2.92791E-03,  -4.05307E-03,       1.15000,NA,NA,"",   5.00000E-03,            0.,       1.15000,            0.,            0.
C:/ALETube/PressureUpdate/LargeStep/DeformErode/JobErode.odb,Step-1,Increment      0: Step Time =,    0.000,"TUBE-1",         15091,  -3.50742E-03,  -3.56342E-03,       1.15000,NA,NA,"",   5.00000E-03,            0.,       1.15000,            0.,            0.
C:/ALETube/PressureUpdate/LargeStep/DeformErode/JobErode.odb,Step-1,Increment      0: Step Time =,    0.000,"TUBE-1",         15314,  -2.92791E-03,  -4.05307E-03,       1.16250,NA,NA,"",   5.00000E-03,            0.,       1.16250,            0.,            0.
C:/ALETube/PressureUpdate/LargeStep/DeformErode/JobErode.odb,Step-1,Increment      0: Step Time =,    0.000,"TUBE-1",         15255,  -3.50742E-03,  -3.56342E-03,       1.16250,NA,NA,"",   5.00000E-03,            0.,       1.16250,            0.,            0.
C:/ALETube/PressureUpdate/LargeStep/DeformErode/JobErode.odb,Step-1,Increment      0: Step Time =,    0.000,"TUBE-1",         15478,  -2.92791E-03,  -4.05307E-03,       1.17500,NA,NA,"",   5.00000E-03,            0.,       1.17500,            0.,            0.
C:/ALETube/PressureUpdate/LargeStep/DeformErode/JobErode.odb,Step-1,Increment      0: Step Time =,    0.000,"TUBE-1",         15419,  -3.50742E-03,  -3.56342E-03,       1.17500,NA,NA,"",   5.00000E-03,            0.,       1.17500,            0.,            0.
C:/ALETube/PressureUpdate/LargeStep/DeformErode/JobErode.odb,Step-1,Increment      0: Step Time =,    0.000,"TUBE-1",         15642,  -2.92791E-03,  -4.05307E-03,        1.1875,NA,NA,"",   5.00000E-03,            0.,        1.1875,            0.,            0.
C:/ALETube/PressureUpdate/LargeStep/DeformErode/JobErode.odb,Step-1,Increment      0: Step Time =,    0.000,"TUBE-1",         15583,  -3.50742E-03,  -3.56342E-03,        1.1875,NA,NA,"",   5.00000E-03,            0.,        1.1875,            0.,            0.
C:/ALETube/PressureUpdate/LargeStep/DeformErode/JobErode.odb,Step-1,Increment      0: Step Time =,    0.000,"TUBE-1",         15747,  -3.50742E-03,  -3.56342E-03,       1.20000,NA,NA,"",   5.00000E-03,            0.,       1.20000,            0.,            0.
C:/ALETube/PressureUpdate/LargeStep/DeformErode/JobErode.odb,Step-1,Increment      0: Step Time =,    0.000,"TUBE-1",         15806,  -2.92791E-03,  -4.05307E-03,       1.20000,NA,NA,"",   5.00000E-03,            0.,       1.20000,            0.,            0.
C:/ALETube/PressureUpdate/LargeStep/DeformErode/JobErode.odb,Step-1,Increment      0: Step Time =,    0.000,"TUBE-1",         15970,  -2.92791E-03,  -4.05307E-03,       1.21250,NA,NA,"",   5.00000E-03,            0.,       1.21250,            0.,            0.
C:/ALETube/PressureUpdate/LargeStep/DeformErode/JobErode.odb,Step-1,Increment      0: Step Time =,    0.000,"TUBE-1",         15911,  -3.50742E-03,  -3.56342E-03,       1.21250,NA,NA,"",   5.00000E-03,            0.,       1.21250,            0.,            0.
C:/ALETube/PressureUpdate/LargeStep/DeformErode/JobErode.odb,Step-1,Increment      0: Step Time =,    0.000,"TUBE-1",         16134,  -2.92791E-03,  -4.05307E-03,       1.22500,NA,NA,"",   5.00000E-03,            0.,       1.22500,            0.,            0.
C:/ALETube/PressureUpdate/LargeStep/DeformErode/JobErode.odb,Step-1,Increment      0: Step Time =,    0.000,"TUBE-1",         16075,  -3.50742E-03,  -3.56342E-03,       1.22500,NA,NA,"",   5.00000E-03,            0.,       1.22500,            0.,            0.
C:/ALETube/PressureUpdate/LargeStep/DeformErode/JobErode.odb,Step-1,Increment      0: Step Time =,    0.000,"TUBE-1",         16298,  -2.92791E-03,  -4.05307E-03,       1.23750,NA,NA,"",   5.00000E-03,            0.,       1.23750,            0.,            0.
C:/ALETube/PressureUpdate/LargeStep/DeformErode/JobErode.odb,Step-1,Increment      0: Step Time =,    0.000,"TUBE-1",         16239,  -3.50742E-03,  -3.56342E-03,       1.23750,NA,NA,"",   5.00000E-03,            0.,       1.23750,            0.,            0.
C:/ALETube/PressureUpdate/LargeStep/DeformErode/JobErode.odb,Step-1,Increment      0: Step Time =,    0.000,"TUBE-1",         16462,  -2.92791E-03,  -4.05307E-03,          1.25,NA,NA,"",   5.00000E-03,            0.,          1.25,            0.,            0.
C:/ALETube/PressureUpdate/LargeStep/DeformErode/JobErode.odb,Step-1,Increment      0: Step Time =,    0.000,"TUBE-1",         16403,  -3.50742E-03,  -3.56342E-03,          1.25,NA,NA,"",   5.00000E-03,            0.,          1.25,            0.,            0.
C:/ALETube/PressureUpdate/LargeStep/DeformErode/JobErode.odb,Step-1,Increment      0: Step Time =,    0.000,"TUBE-1",         16567,  -3.50742E-03,  -3.56342E-03,       1.26250,NA,NA,"",   5.00000E-03,            0.,       1.26250,            0.,            0.
C:/ALETube/PressureUpdate/LargeStep/DeformErode/JobErode.odb,Step-1,Increment      0: Step Time =,    0.000,"TUBE-1",         16626,  -2.92791E-03,  -4.05307E-03,       1.26250,NA,NA,"",   5.00000E-03,            0.,       1.26250,            0.,            0.
C:/ALETube/PressureUpdate/LargeStep/DeformErode/JobErode.odb,Step-1,Increment      0: Step Time =,    0.000,"TUBE-1",         16790,  -2.92791E-03,  -4.05307E-03,       1.27500,NA,NA,"",   5.00000E-03,            0.,       1.27500,            0.,            0.
C:/ALETube/PressureUpdate/LargeStep/DeformErode/JobErode.odb,Step-1,Increment      0: Step Time =,    0.000,"TUBE-1",         16731,  -3.50742E-03,  -3.56342E-03,       1.27500,NA,NA,"",   5.00000E-03,            0.,       1.27500,            0.,            0.
C:/ALETube/PressureUpdate/LargeStep/DeformErode/JobErode.odb,Step-1,Increment      0: Step Time =,    0.000,"TUBE-1",         16954,  -2.92791E-03,  -4.05307E-03,       1.28750,NA,NA,"",   5.00000E-03,            0.,       1.28750,            0.,            0.
C:/ALETube/PressureUpdate/LargeStep/DeformErode/JobErode.odb,Step-1,Increment      0: Step Time =,    0.000,"TUBE-1",         16895,  -3.50742E-03,  -3.56342E-03,       1.28750,NA,NA,"",   5.00000E-03,            0.,       1.28750,            0.,            0.
C:/ALETube/PressureUpdate/LargeStep/DeformErode/JobErode.odb,Step-1,Increment      0: Step Time =,    0.000,"TUBE-1",         17118,  -2.92791E-03,  -4.05307E-03,       1.30000,NA,NA,"",   5.00000E-03,            0.,       1.30000,            0.,            0.
C:/ALETube/PressureUpdate/LargeStep/DeformErode/JobErode.odb,Step-1,Increment      0: Step Time =,    0.000,"TUBE-1",         17059,  -3.50742E-03,  -3.56342E-03,       1.30000,NA,NA,"",   5.00000E-03,            0.,       1.30000,            0.,            0.
C:/ALETube/PressureUpdate/LargeStep/DeformErode/JobErode.odb,Step-1,Increment      0: Step Time =,    0.000,"TUBE-1",         17282,  -2.92791E-03,  -4.05307E-03,        1.3125,NA,NA,"",   5.00000E-03,            0.,        1.3125,            0.,            0.
C:/ALETube/PressureUpdate/LargeStep/DeformErode/JobErode.odb,Step-1,Increment      0: Step Time =,    0.000,"TUBE-1",         17223,  -3.50742E-03,  -3.56342E-03,        1.3125,NA,NA,"",   5.00000E-03,            0.,        1.3125,            0.,            0.
C:/ALETube/PressureUpdate/LargeStep/DeformErode/JobErode.odb,Step-1,Increment      0: Step Time =,    0.000,"TUBE-1",         17387,  -3.50742E-03,  -3.56342E-03,       1.32500,NA,NA,"",   5.00000E-03,            0.,       1.32500,            0.,            0.
C:/ALETube/PressureUpdate/LargeStep/DeformErode/JobErode.odb,Step-1,Increment      0: Step Time =,    0.000,"TUBE-1",         17446,  -2.92791E-03,  -4.05307E-03,       1.32500,NA,NA,"",   5.00000E-03,            0.,       1.32500,            0.,            0.
C:/ALETube/PressureUpdate/LargeStep/DeformErode/JobErode.odb,Step-1,Increment      0: Step Time =,    0.000,"TUBE-1",         17610,  -2.92791E-03,  -4.05307E-03,       1.33750,NA,NA,"",   5.00000E-03,            0.,       1.33750,            0.,            0.
C:/ALETube/PressureUpdate/LargeStep/DeformErode/JobErode.odb,Step-1,Increment      0: Step Time =,    0.000,"TUBE-1",         17551,  -3.50742E-03,  -3.56342E-03,       1.33750,NA,NA,"",   5.00000E-03,            0.,       1.33750,            0.,            0.
C:/ALETube/PressureUpdate/LargeStep/DeformErode/JobErode.odb,Step-1,Increment      0: Step Time =,    0.000,"TUBE-1",         17774,  -2.92791E-03,  -4.05307E-03,       1.35000,NA,NA,"",   5.00000E-03,            0.,       1.35000,            0.,            0.
C:/ALETube/PressureUpdate/LargeStep/DeformErode/JobErode.odb,Step-1,Increment      0: Step Time =,    0.000,"TUBE-1",         17715,  -3.50742E-03,  -3.56342E-03,       1.35000,NA,NA,"",   5.00000E-03,            0.,       1.35000,            0.,            0.
C:/ALETube/PressureUpdate/LargeStep/DeformErode/JobErode.odb,Step-1,Increment      0: Step Time =,    0.000,"TUBE-1",         17938,  -2.92791E-03,  -4.05307E-03,       1.36250,NA,NA,"",   5.00000E-03,            0.,       1.36250,            0.,            0.
C:/ALETube/PressureUpdate/LargeStep/DeformErode/JobErode.odb,Step-1,Increment      0: Step Time =,    0.000,"TUBE-1",         17879,  -3.50742E-03,  -3.56342E-03,       1.36250,NA,NA,"",   5.00000E-03,            0.,       1.36250,            0.,            0.
C:/ALETube/PressureUpdate/LargeStep/DeformErode/JobErode.odb,Step-1,Increment      0: Step Time =,    0.000,"TUBE-1",         18102,  -2.92791E-03,  -4.05307E-03,         1.375,NA,NA,"",   5.00000E-03,            0.,         1.375,            0.,            0.
C:/ALETube/PressureUpdate/LargeStep/DeformErode/JobErode.odb,Step-1,Increment      0: Step Time =,    0.000,"TUBE-1",         18043,  -3.50742E-03,  -3.56342E-03,         1.375,NA,NA,"",   5.00000E-03,            0.,         1.375,            0.,            0.
C:/ALETube/PressureUpdate/LargeStep/DeformErode/JobErode.odb,Step-1,Increment      0: Step Time =,    0.000,"TUBE-1",         18207,  -3.50742E-03,  -3.56342E-03,       1.38750,NA,NA,"",   5.00000E-03,            0.,       1.38750,            0.,            0.
C:/ALETube/PressureUpdate/LargeStep/DeformErode/JobErode.odb,Step-1,Increment      0: Step Time =,    0.000,"TUBE-1",         18266,  -2.92791E-03,  -4.05307E-03,       1.38750,NA,NA,"",   5.00000E-03,            0.,       1.38750,            0.,            0.
C:/ALETube/PressureUpdate/LargeStep/DeformErode/JobErode.odb,Step-1,Increment      0: Step Time =,    0.000,"TUBE-1",         18430,  -2.92791E-03,  -4.05307E-03,       1.40000,NA,NA,"",   5.00000E-03,            0.,       1.40000,            0.,            0.
C:/ALETube/PressureUpdate/LargeStep/DeformErode/JobErode.odb,Step-1,Increment      0: Step Time =,    0.000,"TUBE-1",         18371,  -3.50742E-03,  -3.56342E-03,       1.40000,NA,NA,"",   5.00000E-03,            0.,       1.40000,            0.,            0.
C:/ALETube/PressureUpdate/LargeStep/DeformErode/JobErode.odb,Step-1,Increment      0: Step Time =,    0.000,"TUBE-1",         18594,  -2.92791E-03,  -4.05307E-03,       1.41250,NA,NA,"",   5.00000E-03,            0.,       1.41250,            0.,            0.
C:/ALETube/PressureUpdate/LargeStep/DeformErode/JobErode.odb,Step-1,Increment      0: Step Time =,    0.000,"TUBE-1",         18535,  -3.50742E-03,  -3.56342E-03,       1.41250,NA,NA,"",   5.00000E-03,            0.,       1.41250,            0.,            0.
C:/ALETube/PressureUpdate/LargeStep/DeformErode/JobErode.odb,Step-1,Increment      0: Step Time =,    0.000,"TUBE-1",         18758,  -2.92791E-03,  -4.05307E-03,       1.42500,NA,NA,"",   5.00000E-03,            0.,       1.42500,            0.,            0.
C:/ALETube/PressureUpdate/LargeStep/DeformErode/JobErode.odb,Step-1,Increment      0: Step Time =,    0.000,"TUBE-1",         18699,  -3.50742E-03,  -3.56342E-03,       1.42500,NA,NA,"",   5.00000E-03,            0.,       1.42500,            0.,            0.
C:/ALETube/PressureUpdate/LargeStep/DeformErode/JobErode.odb,Step-1,Increment      0: Step Time =,    0.000,"TUBE-1",         18922,  -2.92791E-03,  -4.05307E-03,        1.4375,NA,NA,"",   5.00000E-03,            0.,        1.4375,            0.,            0.
C:/ALETube/PressureUpdate/LargeStep/DeformErode/JobErode.odb,Step-1,Increment      0: Step Time =,    0.000,"TUBE-1",         18863,  -3.50742E-03,  -3.56342E-03,        1.4375,NA,NA,"",   5.00000E-03,            0.,        1.4375,            0.,            0.
C:/ALETube/PressureUpdate/LargeStep/DeformErode/JobErode.odb,Step-1,Increment      0: Step Time =,    0.000,"TUBE-1",         19027,  -3.50742E-03,  -3.56342E-03,       1.45000,NA,NA,"",   5.00000E-03,            0.,       1.45000,            0.,            0.
C:/ALETube/PressureUpdate/LargeStep/DeformErode/JobErode.odb,Step-1,Increment      0: Step Time =,    0.000,"TUBE-1",         19086,  -2.92791E-03,  -4.05307E-03,       1.45000,NA,NA,"",   5.00000E-03,            0.,       1.45000,            0.,            0.
C:/ALETube/PressureUpdate/LargeStep/DeformErode/JobErode.odb,Step-1,Increment      0: Step Time =,    0.000,"TUBE-1",         19250,  -2.92791E-03,  -4.05307E-03,       1.46250,NA,NA,"",   5.00000E-03,            0.,       1.46250,            0.,            0.
C:/ALETube/PressureUpdate/LargeStep/DeformErode/JobErode.odb,Step-1,Increment      0: Step Time =,    0.000,"TUBE-1",         19191,  -3.50742E-03,  -3.56342E-03,       1.46250,NA,NA,"",   5.00000E-03,            0.,       1.46250,            0.,            0.
C:/ALETube/PressureUpdate/LargeStep/DeformErode/JobErode.odb,Step-1,Increment      0: Step Time =,    0.000,"TUBE-1",         19414,  -2.92791E-03,  -4.05307E-03,       1.47500,NA,NA,"",   5.00000E-03,            0.,       1.47500,            0.,            0.
C:/ALETube/PressureUpdate/LargeStep/DeformErode/JobErode.odb,Step-1,Increment      0: Step Time =,    0.000,"TUBE-1",         19355,  -3.50742E-03,  -3.56342E-03,       1.47500,NA,NA,"",   5.00000E-03,            0.,       1.47500,            0.,            0.
C:/ALETube/PressureUpdate/LargeStep/DeformErode/JobErode.odb,Step-1,Increment      0: Step Time =,    0.000,"TUBE-1",         19578,  -2.92791E-03,  -4.05307E-03,       1.48750,NA,NA,"",   5.00000E-03,            0.,       1.48750,            0.,            0.
C:/ALETube/PressureUpdate/LargeStep/DeformErode/JobErode.odb,Step-1,Increment      0: Step Time =,    0.000,"TUBE-1",         19519,  -3.50742E-03,  -3.56342E-03,       1.48750,NA,NA,"",   5.00000E-03,            0.,       1.48750,            0.,            0.
C:/ALETube/PressureUpdate/LargeStep/DeformErode/JobErode.odb,Step-1,Increment      0: Step Time =,    0.000,"TUBE-1",         19742,  -2.92791E-03,  -4.05307E-03,           1.5,NA,NA,"",   5.00000E-03,            0.,           1.5,            0.,            0.
C:/ALETube/PressureUpdate/LargeStep/DeformErode/JobErode.odb,Step-1,Increment      0: Step Time =,    0.000,"TUBE-1",         19683,  -3.50742E-03,  -3.56342E-03,           1.5,NA,NA,"",   5.00000E-03,            0.,           1.5,            0.,            0.
C:/ALETube/PressureUpdate/LargeStep/DeformErode/JobErode.odb,Step-1,Increment      0: Step Time =,    0.000,"TUBE-1",         19847,  -3.50742E-03,  -3.56342E-03,       1.51250,NA,NA,"",   5.00000E-03,            0.,       1.51250,            0.,            0.
C:/ALETube/PressureUpdate/LargeStep/DeformErode/JobErode.odb,Step-1,Increment      0: Step Time =,    0.000,"TUBE-1",         19906,  -2.92791E-03,  -4.05307E-03,       1.51250,NA,NA,"",   5.00000E-03,            0.,       1.51250,            0.,            0.
C:/ALETube/PressureUpdate/LargeStep/DeformErode/JobErode.odb,Step-1,Increment      0: Step Time =,    0.000,"TUBE-1",         20070,  -2.92791E-03,  -4.05307E-03,       1.52500,NA,NA,"",   5.00000E-03,            0.,       1.52500,            0.,            0.
C:/ALETube/PressureUpdate/LargeStep/DeformErode/JobErode.odb,Step-1,Increment      0: Step Time =,    0.000,"TUBE-1",         20011,  -3.50742E-03,  -3.56342E-03,       1.52500,NA,NA,"",   5.00000E-03,            0.,       1.52500,            0.,            0.
C:/ALETube/PressureUpdate/LargeStep/DeformErode/JobErode.odb,Step-1,Increment      0: Step Time =,    0.000,"TUBE-1",         20234,  -2.92791E-03,  -4.05307E-03,       1.53750,NA,NA,"",   5.00000E-03,            0.,       1.53750,            0.,            0.
C:/ALETube/PressureUpdate/LargeStep/DeformErode/JobErode.odb,Step-1,Increment      0: Step Time =,    0.000,"TUBE-1",         20175,  -3.50742E-03,  -3.56342E-03,       1.53750,NA,NA,"",   5.00000E-03,            0.,       1.53750,            0.,            0.
C:/ALETube/PressureUpdate/LargeStep/DeformErode/JobErode.odb,Step-1,Increment      0: Step Time =,    0.000,"TUBE-1",         20398,  -2.92791E-03,  -4.05307E-03,       1.55000,NA,NA,"",   5.00000E-03,            0.,       1.55000,            0.,            0.
C:/ALETube/PressureUpdate/LargeStep/DeformErode/JobErode.odb,Step-1,Increment      0: Step Time =,    0.000,"TUBE-1",         20339,  -3.50742E-03,  -3.56342E-03,       1.55000,NA,NA,"",   5.00000E-03,            0.,       1.55000,            0.,            0.
C:/ALETube/PressureUpdate/LargeStep/DeformErode/JobErode.odb,Step-1,Increment      0: Step Time =,    0.000,"TUBE-1",         20562,  -2.92791E-03,  -4.05307E-03,        1.5625,NA,NA,"",   5.00000E-03,            0.,        1.5625,            0.,            0.
C:/ALETube/PressureUpdate/LargeStep/DeformErode/JobErode.odb,Step-1,Increment      0: Step Time =,    0.000,"TUBE-1",         20503,  -3.50742E-03,  -3.56342E-03,        1.5625,NA,NA,"",   5.00000E-03,            0.,        1.5625,            0.,            0.
C:/ALETube/PressureUpdate/LargeStep/DeformErode/JobErode.odb,Step-1,Increment      0: Step Time =,    0.000,"TUBE-1",         20667,  -3.50742E-03,  -3.56342E-03,       1.57500,NA,NA,"",   5.00000E-03,            0.,       1.57500,            0.,            0.
C:/ALETube/PressureUpdate/LargeStep/DeformErode/JobErode.odb,Step-1,Increment      0: Step Time =,    0.000,"TUBE-1",         20726,  -2.92791E-03,  -4.05307E-03,       1.57500,NA,NA,"",   5.00000E-03,            0.,       1.57500,            0.,            0.
C:/ALETube/PressureUpdate/LargeStep/DeformErode/JobErode.odb,Step-1,Increment      0: Step Time =,    0.000,"TUBE-1",         20890,  -2.92791E-03,  -4.05307E-03,       1.58750,NA,NA,"",   5.00000E-03,            0.,       1.58750,            0.,            0.
C:/ALETube/PressureUpdate/LargeStep/DeformErode/JobErode.odb,Step-1,Increment      0: Step Time =,    0.000,"TUBE-1",         20831,  -3.50742E-03,  -3.56342E-03,       1.58750,NA,NA,"",   5.00000E-03,            0.,       1.58750,            0.,            0.
C:/ALETube/PressureUpdate/LargeStep/DeformErode/JobErode.odb,Step-1,Increment      0: Step Time =,    0.000,"TUBE-1",         21054,  -2.92791E-03,  -4.05307E-03,       1.60000,NA,NA,"",   5.00000E-03,            0.,       1.60000,            0.,            0.
C:/ALETube/PressureUpdate/LargeStep/DeformErode/JobErode.odb,Step-1,Increment      0: Step Time =,    0.000,"TUBE-1",         20995,  -3.50742E-03,  -3.56342E-03,       1.60000,NA,NA,"",   5.00000E-03,            0.,       1.60000,            0.,            0.
C:/ALETube/PressureUpdate/LargeStep/DeformErode/JobErode.odb,Step-1,Increment      0: Step Time =,    0.000,"TUBE-1",         21218,  -2.92791E-03,  -4.05307E-03,       1.61250,NA,NA,"",   5.00000E-03,            0.,       1.61250,            0.,            0.
C:/ALETube/PressureUpdate/LargeStep/DeformErode/JobErode.odb,Step-1,Increment      0: Step Time =,    0.000,"TUBE-1",         21159,  -3.50742E-03,  -3.56342E-03,       1.61250,NA,NA,"",   5.00000E-03,            0.,       1.61250,            0.,            0.
C:/ALETube/PressureUpdate/LargeStep/DeformErode/JobErode.odb,Step-1,Increment      0: Step Time =,    0.000,"TUBE-1",         21382,  -2.92791E-03,  -4.05307E-03,         1.625,NA,NA,"",   5.00000E-03,            0.,         1.625,            0.,            0.
C:/ALETube/PressureUpdate/LargeStep/DeformErode/JobErode.odb,Step-1,Increment      0: Step Time =,    0.000,"TUBE-1",         21323,  -3.50742E-03,  -3.56342E-03,         1.625,NA,NA,"",   5.00000E-03,            0.,         1.625,            0.,            0.
C:/ALETube/PressureUpdate/LargeStep/DeformErode/JobErode.odb,Step-1,Increment      0: Step Time =,    0.000,"TUBE-1",         21487,  -3.50742E-03,  -3.56342E-03,       1.63750,NA,NA,"",   5.00000E-03,            0.,       1.63750,            0.,            0.
C:/ALETube/PressureUpdate/LargeStep/DeformErode/JobErode.odb,Step-1,Increment      0: Step Time =,    0.000,"TUBE-1",         21546,  -2.92791E-03,  -4.05307E-03,       1.63750,NA,NA,"",   5.00000E-03,            0.,       1.63750,            0.,            0.
C:/ALETube/PressureUpdate/LargeStep/DeformErode/JobErode.odb,Step-1,Increment      0: Step Time =,    0.000,"TUBE-1",         21710,  -2.92791E-03,  -4.05307E-03,       1.65000,NA,NA,"",   5.00000E-03,            0.,       1.65000,            0.,            0.
C:/ALETube/PressureUpdate/LargeStep/DeformErode/JobErode.odb,Step-1,Increment      0: Step Time =,    0.000,"TUBE-1",         21651,  -3.50742E-03,  -3.56342E-03,       1.65000,NA,NA,"",   5.00000E-03,            0.,       1.65000,            0.,            0.
C:/ALETube/PressureUpdate/LargeStep/DeformErode/JobErode.odb,Step-1,Increment      0: Step Time =,    0.000,"TUBE-1",         21874,  -2.92791E-03,  -4.05307E-03,       1.66250,NA,NA,"",   5.00000E-03,            0.,       1.66250,            0.,            0.
C:/ALETube/PressureUpdate/LargeStep/DeformErode/JobErode.odb,Step-1,Increment      0: Step Time =,    0.000,"TUBE-1",         21815,  -3.50742E-03,  -3.56342E-03,       1.66250,NA,NA,"",   5.00000E-03,            0.,       1.66250,            0.,            0.
C:/ALETube/PressureUpdate/LargeStep/DeformErode/JobErode.odb,Step-1,Increment      0: Step Time =,    0.000,"TUBE-1",         22038,  -2.92791E-03,  -4.05307E-03,       1.67500,NA,NA,"",   5.00000E-03,            0.,       1.67500,            0.,            0.
C:/ALETube/PressureUpdate/LargeStep/DeformErode/JobErode.odb,Step-1,Increment      0: Step Time =,    0.000,"TUBE-1",         21979,  -3.50742E-03,  -3.56342E-03,       1.67500,NA,NA,"",   5.00000E-03,            0.,       1.67500,            0.,            0.
C:/ALETube/PressureUpdate/LargeStep/DeformErode/JobErode.odb,Step-1,Increment      0: Step Time =,    0.000,"TUBE-1",         22202,  -2.92791E-03,  -4.05307E-03,        1.6875,NA,NA,"",   5.00000E-03,            0.,        1.6875,            0.,            0.
C:/ALETube/PressureUpdate/LargeStep/DeformErode/JobErode.odb,Step-1,Increment      0: Step Time =,    0.000,"TUBE-1",         22143,  -3.50742E-03,  -3.56342E-03,        1.6875,NA,NA,"",   5.00000E-03,            0.,        1.6875,            0.,            0.
C:/ALETube/PressureUpdate/LargeStep/DeformErode/JobErode.odb,Step-1,Increment      0: Step Time =,    0.000,"TUBE-1",         22307,  -3.50742E-03,  -3.56342E-03,       1.70000,NA,NA,"",   5.00000E-03,            0.,       1.70000,            0.,            0.
C:/ALETube/PressureUpdate/LargeStep/DeformErode/JobErode.odb,Step-1,Increment      0: Step Time =,    0.000,"TUBE-1",         22366,  -2.92791E-03,  -4.05307E-03,       1.70000,NA,NA,"",   5.00000E-03,            0.,       1.70000,            0.,            0.
C:/ALETube/PressureUpdate/LargeStep/DeformErode/JobErode.odb,Step-1,Increment      0: Step Time =,    0.000,"TUBE-1",         22530,  -2.92791E-03,  -4.05307E-03,       1.71250,NA,NA,"",   5.00000E-03,            0.,       1.71250,            0.,            0.
C:/ALETube/PressureUpdate/LargeStep/DeformErode/JobErode.odb,Step-1,Increment      0: Step Time =,    0.000,"TUBE-1",         22471,  -3.50742E-03,  -3.56342E-03,       1.71250,NA,NA,"",   5.00000E-03,            0.,       1.71250,            0.,            0.
C:/ALETube/PressureUpdate/LargeStep/DeformErode/JobErode.odb,Step-1,Increment      0: Step Time =,    0.000,"TUBE-1",         22694,  -2.92791E-03,  -4.05307E-03,       1.72500,NA,NA,"",   5.00000E-03,            0.,       1.72500,            0.,            0.
C:/ALETube/PressureUpdate/LargeStep/DeformErode/JobErode.odb,Step-1,Increment      0: Step Time =,    0.000,"TUBE-1",         22635,  -3.50742E-03,  -3.56342E-03,       1.72500,NA,NA,"",   5.00000E-03,            0.,       1.72500,            0.,            0.
C:/ALETube/PressureUpdate/LargeStep/DeformErode/JobErode.odb,Step-1,Increment      0: Step Time =,    0.000,"TUBE-1",         22858,  -2.92791E-03,  -4.05307E-03,       1.73750,NA,NA,"",   5.00000E-03,            0.,       1.73750,            0.,            0.
C:/ALETube/PressureUpdate/LargeStep/DeformErode/JobErode.odb,Step-1,Increment      0: Step Time =,    0.000,"TUBE-1",         22799,  -3.50742E-03,  -3.56342E-03,       1.73750,NA,NA,"",   5.00000E-03,            0.,       1.73750,            0.,            0.
C:/ALETube/PressureUpdate/LargeStep/DeformErode/JobErode.odb,Step-1,Increment      0: Step Time =,    0.000,"TUBE-1",         23022,  -2.92791E-03,  -4.05307E-03,          1.75,NA,NA,"",   5.00000E-03,            0.,          1.75,            0.,            0.
C:/ALETube/PressureUpdate/LargeStep/DeformErode/JobErode.odb,Step-1,Increment      0: Step Time =,    0.000,"TUBE-1",         22963,  -3.50742E-03,  -3.56342E-03,          1.75,NA,NA,"",   5.00000E-03,            0.,          1.75,            0.,            0.
C:/ALETube/PressureUpdate/LargeStep/DeformErode/JobErode.odb,Step-1,Increment      0: Step Time =,    0.000,"TUBE-1",         23127,  -3.50742E-03,  -3.56342E-03,       1.76250,NA,NA,"",   5.00000E-03,            0.,       1.76250,            0.,            0.
C:/ALETube/PressureUpdate/LargeStep/DeformErode/JobErode.odb,Step-1,Increment      0: Step Time =,    0.000,"TUBE-1",         23186,  -2.92791E-03,  -4.05307E-03,       1.76250,NA,NA,"",   5.00000E-03,            0.,       1.76250,            0.,            0.
C:/ALETube/PressureUpdate/LargeStep/DeformErode/JobErode.odb,Step-1,Increment      0: Step Time =,    0.000,"TUBE-1",         23350,  -2.92791E-03,  -4.05307E-03,       1.77500,NA,NA,"",   5.00000E-03,            0.,       1.77500,            0.,            0.
C:/ALETube/PressureUpdate/LargeStep/DeformErode/JobErode.odb,Step-1,Increment      0: Step Time =,    0.000,"TUBE-1",         23291,  -3.50742E-03,  -3.56342E-03,       1.77500,NA,NA,"",   5.00000E-03,            0.,       1.77500,            0.,            0.
C:/ALETube/PressureUpdate/LargeStep/DeformErode/JobErode.odb,Step-1,Increment      0: Step Time =,    0.000,"TUBE-1",         23514,  -2.92791E-03,  -4.05307E-03,       1.78750,NA,NA,"",   5.00000E-03,            0.,       1.78750,            0.,            0.
C:/ALETube/PressureUpdate/LargeStep/DeformErode/JobErode.odb,Step-1,Increment      0: Step Time =,    0.000,"TUBE-1",         23455,  -3.50742E-03,  -3.56342E-03,       1.78750,NA,NA,"",   5.00000E-03,            0.,       1.78750,            0.,            0.
C:/ALETube/PressureUpdate/LargeStep/DeformErode/JobErode.odb,Step-1,Increment      0: Step Time =,    0.000,"TUBE-1",         23678,  -2.92791E-03,  -4.05307E-03,       1.80000,NA,NA,"",   5.00000E-03,            0.,       1.80000,            0.,            0.
C:/ALETube/PressureUpdate/LargeStep/DeformErode/JobErode.odb,Step-1,Increment      0: Step Time =,    0.000,"TUBE-1",         23619,  -3.50742E-03,  -3.56342E-03,       1.80000,NA,NA,"",   5.00000E-03,            0.,       1.80000,            0.,            0.
C:/ALETube/PressureUpdate/LargeStep/DeformErode/JobErode.odb,Step-1,Increment      0: Step Time =,    0.000,"TUBE-1",         23842,  -2.92791E-03,  -4.05307E-03,        1.8125,NA,NA,"",   5.00000E-03,            0.,        1.8125,            0.,            0.
C:/ALETube/PressureUpdate/LargeStep/DeformErode/JobErode.odb,Step-1,Increment      0: Step Time =,    0.000,"TUBE-1",         23783,  -3.50742E-03,  -3.56342E-03,        1.8125,NA,NA,"",   5.00000E-03,            0.,        1.8125,            0.,            0.
C:/ALETube/PressureUpdate/LargeStep/DeformErode/JobErode.odb,Step-1,Increment      0: Step Time =,    0.000,"TUBE-1",         23947,  -3.50742E-03,  -3.56342E-03,       1.82500,NA,NA,"",   5.00000E-03,            0.,       1.82500,            0.,            0.
C:/ALETube/PressureUpdate/LargeStep/DeformErode/JobErode.odb,Step-1,Increment      0: Step Time =,    0.000,"TUBE-1",         24006,  -2.92791E-03,  -4.05307E-03,       1.82500,NA,NA,"",   5.00000E-03,            0.,       1.82500,            0.,            0.
C:/ALETube/PressureUpdate/LargeStep/DeformErode/JobErode.odb,Step-1,Increment      0: Step Time =,    0.000,"TUBE-1",         24170,  -2.92791E-03,  -4.05307E-03,       1.83750,NA,NA,"",   5.00000E-03,            0.,       1.83750,            0.,            0.
C:/ALETube/PressureUpdate/LargeStep/DeformErode/JobErode.odb,Step-1,Increment      0: Step Time =,    0.000,"TUBE-1",         24111,  -3.50742E-03,  -3.56342E-03,       1.83750,NA,NA,"",   5.00000E-03,            0.,       1.83750,            0.,            0.
C:/ALETube/PressureUpdate/LargeStep/DeformErode/JobErode.odb,Step-1,Increment      0: Step Time =,    0.000,"TUBE-1",         24334,  -2.92791E-03,  -4.05307E-03,       1.85000,NA,NA,"",   5.00000E-03,            0.,       1.85000,            0.,            0.
C:/ALETube/PressureUpdate/LargeStep/DeformErode/JobErode.odb,Step-1,Increment      0: Step Time =,    0.000,"TUBE-1",         24275,  -3.50742E-03,  -3.56342E-03,       1.85000,NA,NA,"",   5.00000E-03,            0.,       1.85000,            0.,            0.
C:/ALETube/PressureUpdate/LargeStep/DeformErode/JobErode.odb,Step-1,Increment      0: Step Time =,    0.000,"TUBE-1",         24498,  -2.92791E-03,  -4.05307E-03,       1.86250,NA,NA,"",   5.00000E-03,            0.,       1.86250,            0.,            0.
C:/ALETube/PressureUpdate/LargeStep/DeformErode/JobErode.odb,Step-1,Increment      0: Step Time =,    0.000,"TUBE-1",         24439,  -3.50742E-03,  -3.56342E-03,       1.86250,NA,NA,"",   5.00000E-03,            0.,       1.86250,            0.,            0.
C:/ALETube/PressureUpdate/LargeStep/DeformErode/JobErode.odb,Step-1,Increment      0: Step Time =,    0.000,"TUBE-1",         24662,  -2.92791E-03,  -4.05307E-03,         1.875,NA,NA,"",   5.00000E-03,            0.,         1.875,            0.,            0.
C:/ALETube/PressureUpdate/LargeStep/DeformErode/JobErode.odb,Step-1,Increment      0: Step Time =,    0.000,"TUBE-1",         24603,  -3.50742E-03,  -3.56342E-03,         1.875,NA,NA,"",   5.00000E-03,            0.,         1.875,            0.,            0.
C:/ALETube/PressureUpdate/LargeStep/DeformErode/JobErode.odb,Step-1,Increment      0: Step Time =,    0.000,"TUBE-1",         24767,  -3.50742E-03,  -3.56342E-03,       1.88750,NA,NA,"",   5.00000E-03,            0.,       1.88750,            0.,            0.
C:/ALETube/PressureUpdate/LargeStep/DeformErode/JobErode.odb,Step-1,Increment      0: Step Time =,    0.000,"TUBE-1",         24826,  -2.92791E-03,  -4.05307E-03,       1.88750,NA,NA,"",   5.00000E-03,            0.,       1.88750,            0.,            0.
C:/ALETube/PressureUpdate/LargeStep/DeformErode/JobErode.odb,Step-1,Increment      0: Step Time =,    0.000,"TUBE-1",         24990,  -2.92791E-03,  -4.05307E-03,       1.90000,NA,NA,"",   5.00000E-03,            0.,       1.90000,            0.,            0.
C:/ALETube/PressureUpdate/LargeStep/DeformErode/JobErode.odb,Step-1,Increment      0: Step Time =,    0.000,"TUBE-1",         24931,  -3.50742E-03,  -3.56342E-03,       1.90000,NA,NA,"",   5.00000E-03,            0.,       1.90000,            0.,            0.
C:/ALETube/PressureUpdate/LargeStep/DeformErode/JobErode.odb,Step-1,Increment      0: Step Time =,    0.000,"TUBE-1",         25154,  -2.92791E-03,  -4.05307E-03,       1.91250,NA,NA,"",   5.00000E-03,            0.,       1.91250,            0.,            0.
C:/ALETube/PressureUpdate/LargeStep/DeformErode/JobErode.odb,Step-1,Increment      0: Step Time =,    0.000,"TUBE-1",         25095,  -3.50742E-03,  -3.56342E-03,       1.91250,NA,NA,"",   5.00000E-03,            0.,       1.91250,            0.,            0.
C:/ALETube/PressureUpdate/LargeStep/DeformErode/JobErode.odb,Step-1,Increment      0: Step Time =,    0.000,"TUBE-1",         25318,  -2.92791E-03,  -4.05307E-03,       1.92500,NA,NA,"",   5.00000E-03,            0.,       1.92500,            0.,            0.
C:/ALETube/PressureUpdate/LargeStep/DeformErode/JobErode.odb,Step-1,Increment      0: Step Time =,    0.000,"TUBE-1",         25259,  -3.50742E-03,  -3.56342E-03,       1.92500,NA,NA,"",   5.00000E-03,            0.,       1.92500,            0.,            0.
C:/ALETube/PressureUpdate/LargeStep/DeformErode/JobErode.odb,Step-1,Increment      0: Step Time =,    0.000,"TUBE-1",         25482,  -2.92791E-03,  -4.05307E-03,        1.9375,NA,NA,"",   5.00000E-03,            0.,        1.9375,            0.,            0.
C:/ALETube/PressureUpdate/LargeStep/DeformErode/JobErode.odb,Step-1,Increment      0: Step Time =,    0.000,"TUBE-1",         25423,  -3.50742E-03,  -3.56342E-03,        1.9375,NA,NA,"",   5.00000E-03,            0.,        1.9375,            0.,            0.
C:/ALETube/PressureUpdate/LargeStep/DeformErode/JobErode.odb,Step-1,Increment      0: Step Time =,    0.000,"TUBE-1",         25587,  -3.50742E-03,  -3.56342E-03,       1.95000,NA,NA,"",   5.00000E-03,            0.,       1.95000,            0.,            0.
C:/ALETube/PressureUpdate/LargeStep/DeformErode/JobErode.odb,Step-1,Increment      0: Step Time =,    0.000,"TUBE-1",         25646,  -2.92791E-03,  -4.05307E-03,       1.95000,NA,NA,"",   5.00000E-03,            0.,       1.95000,            0.,            0.
C:/ALETube/PressureUpdate/LargeStep/DeformErode/JobErode.odb,Step-1,Increment      0: Step Time =,    0.000,"TUBE-1",         25810,  -2.92791E-03,  -4.05307E-03,       1.96250,NA,NA,"",   5.00000E-03,            0.,       1.96250,            0.,            0.
C:/ALETube/PressureUpdate/LargeStep/DeformErode/JobErode.odb,Step-1,Increment      0: Step Time =,    0.000,"TUBE-1",         25751,  -3.50742E-03,  -3.56342E-03,       1.96250,NA,NA,"",   5.00000E-03,            0.,       1.96250,            0.,            0.
C:/ALETube/PressureUpdate/LargeStep/DeformErode/JobErode.odb,Step-1,Increment      0: Step Time =,    0.000,"TUBE-1",         25974,  -2.92791E-03,  -4.05307E-03,       1.97500,NA,NA,"",   5.00000E-03,            0.,       1.97500,            0.,            0.
C:/ALETube/PressureUpdate/LargeStep/DeformErode/JobErode.odb,Step-1,Increment      0: Step Time =,    0.000,"TUBE-1",         25915,  -3.50742E-03,  -3.56342E-03,       1.97500,NA,NA,"",   5.00000E-03,            0.,       1.97500,            0.,            0.
C:/ALETube/PressureUpdate/LargeStep/DeformErode/JobErode.odb,Step-1,Increment      0: Step Time =,    0.000,"TUBE-1",         26138,  -2.92791E-03,  -4.05307E-03,       1.98750,NA,NA,"",   5.00000E-03,            0.,       1.98750,            0.,            0.
C:/ALETube/PressureUpdate/LargeStep/DeformErode/JobErode.odb,Step-1,Increment      0: Step Time =,    0.000,"TUBE-1",         26079,  -3.50742E-03,  -3.56342E-03,       1.98750,NA,NA,"",   5.00000E-03,            0.,       1.98750,            0.,            0.
C:/ALETube/PressureUpdate/LargeStep/DeformErode/JobErode.odb,Step-1,Increment      0: Step Time =,    0.000,"TUBE-1",         26302,  -2.92791E-03,  -4.05307E-03,            2.,NA,NA,"",   5.00000E-03,            0.,            2.,            0.,            0.
C:/ALETube/PressureUpdate/LargeStep/DeformErode/JobErode.odb,Step-1,Increment      0: Step Time =,    0.000,"TUBE-1",         26243,  -3.50742E-03,  -3.56342E-03,            2.,NA,NA,"",   5.00000E-03,            0.,            2.,            0.,            0.
C:/ALETube/PressureUpdate/LargeStep/DeformErode/JobErode.odb,Step-1,Increment      1: Step Time =,    10.00,"TUBE-1",            62,  -2.92791E-03,  -4.05307E-03,            0.,NA,NA,"",   5.00000E-03,            0.,            0.,            0.,            0.
C:/ALETube/PressureUpdate/LargeStep/DeformErode/JobErode.odb,Step-1,Increment      1: Step Time =,    10.00,"TUBE-1",             3,  -3.50742E-03,  -3.56342E-03,            0.,NA,NA,"",   5.00000E-03,            0.,            0.,            0.,            0.
C:/ALETube/PressureUpdate/LargeStep/DeformErode/JobErode.odb,Step-1,Increment      1: Step Time =,    10.00,"TUBE-1",           226,  -2.92791E-03,  -4.05307E-03,   12.5000E-03,NA,NA,"",   5.00000E-03,            0.,   12.5000E-03,            0.,            0.
C:/ALETube/PressureUpdate/LargeStep/DeformErode/JobErode.odb,Step-1,Increment      1: Step Time =,    10.00,"TUBE-1",           167,  -3.50742E-03,  -3.56342E-03,   12.5000E-03,NA,NA,"",   5.00000E-03,            0.,   12.5000E-03,            0.,            0.
C:/ALETube/PressureUpdate/LargeStep/DeformErode/JobErode.odb,Step-1,Increment      1: Step Time =,    10.00,"TUBE-1",           331,  -3.50742E-03,  -3.56342E-03,   25.0000E-03,NA,NA,"",   5.00000E-03,            0.,   25.0000E-03,            0.,            0.
C:/ALETube/PressureUpdate/LargeStep/DeformErode/JobErode.odb,Step-1,Increment      1: Step Time =,    10.00,"TUBE-1",           390,  -2.92791E-03,  -4.05307E-03,   25.0000E-03,NA,NA,"",   5.00000E-03,            0.,   25.0000E-03,            0.,            0.
C:/ALETube/PressureUpdate/LargeStep/DeformErode/JobErode.odb,Step-1,Increment      1: Step Time =,    10.00,"TUBE-1",           554,  -2.92791E-03,  -4.05307E-03,   37.5000E-03,NA,NA,"",   5.00000E-03,            0.,   37.5000E-03,            0.,            0.
C:/ALETube/PressureUpdate/LargeStep/DeformErode/JobErode.odb,Step-1,Increment      1: Step Time =,    10.00,"TUBE-1",           495,  -3.50742E-03,  -3.56342E-03,   37.5000E-03,NA,NA,"",   5.00000E-03,            0.,   37.5000E-03,            0.,            0.
C:/ALETube/PressureUpdate/LargeStep/DeformErode/JobErode.odb,Step-1,Increment      1: Step Time =,    10.00,"TUBE-1",           718,  -2.92791E-03,  -4.05307E-03,   50.0000E-03,NA,NA,"",   5.00000E-03,            0.,   50.0000E-03,            0.,            0.
C:/ALETube/PressureUpdate/LargeStep/DeformErode/JobErode.odb,Step-1,Increment      1: Step Time =,    10.00,"TUBE-1",           659,  -3.50742E-03,  -3.56342E-03,   50.0000E-03,NA,NA,"",   5.00000E-03,            0.,   50.0000E-03,            0.,            0.
C:/ALETube/PressureUpdate/LargeStep/DeformErode/JobErode.odb,Step-1,Increment      1: Step Time =,    10.00,"TUBE-1",           823,  -3.50742E-03,  -3.56342E-03,      62.5E-03,NA,NA,"",   5.00000E-03,            0.,      62.5E-03,            0.,            0.
C:/ALETube/PressureUpdate/LargeStep/DeformErode/JobErode.odb,Step-1,Increment      1: Step Time =,    10.00,"TUBE-1",           882,  -2.92791E-03,  -4.05307E-03,      62.5E-03,NA,NA,"",   5.00000E-03,            0.,      62.5E-03,            0.,            0.
C:/ALETube/PressureUpdate/LargeStep/DeformErode/JobErode.odb,Step-1,Increment      1: Step Time =,    10.00,"TUBE-1",          1046,  -2.92791E-03,  -4.05307E-03,   75.0000E-03,NA,NA,"",   5.00000E-03,            0.,   75.0000E-03,            0.,            0.
C:/ALETube/PressureUpdate/LargeStep/DeformErode/JobErode.odb,Step-1,Increment      1: Step Time =,    10.00,"TUBE-1",           987,  -3.50742E-03,  -3.56342E-03,   75.0000E-03,NA,NA,"",   5.00000E-03,            0.,   75.0000E-03,            0.,            0.
C:/ALETube/PressureUpdate/LargeStep/DeformErode/JobErode.odb,Step-1,Increment      1: Step Time =,    10.00,"TUBE-1",          1210,  -2.92791E-03,  -4.05307E-03,   87.5000E-03,NA,NA,"",   5.00000E-03,            0.,   87.5000E-03,            0.,            0.
C:/ALETube/PressureUpdate/LargeStep/DeformErode/JobErode.odb,Step-1,Increment      1: Step Time =,    10.00,"TUBE-1",          1151,  -3.50742E-03,  -3.56342E-03,   87.5000E-03,NA,NA,"",   5.00000E-03,            0.,   87.5000E-03,            0.,            0.
C:/ALETube/PressureUpdate/LargeStep/DeformErode/JobErode.odb,Step-1,Increment      1: Step Time =,    10.00,"TUBE-1",          1374,  -2.92791E-03,  -4.05307E-03,   100.000E-03,NA,NA,"",   5.00000E-03,            0.,   100.000E-03,            0.,            0.
C:/ALETube/PressureUpdate/LargeStep/DeformErode/JobErode.odb,Step-1,Increment      1: Step Time =,    10.00,"TUBE-1",          1315,  -3.50742E-03,  -3.56342E-03,   100.000E-03,NA,NA,"",   5.00000E-03,            0.,   100.000E-03,            0.,            0.
C:/ALETube/PressureUpdate/LargeStep/DeformErode/JobErode.odb,Step-1,Increment      1: Step Time =,    10.00,"TUBE-1",          1538,  -2.92791E-03,  -4.05307E-03,   112.500E-03,NA,NA,"",   5.00000E-03,            0.,   112.500E-03,            0.,            0.
C:/ALETube/PressureUpdate/LargeStep/DeformErode/JobErode.odb,Step-1,Increment      1: Step Time =,    10.00,"TUBE-1",          1479,  -3.50742E-03,  -3.56342E-03,   112.500E-03,NA,NA,"",   5.00000E-03,            0.,   112.500E-03,            0.,            0.
C:/ALETube/PressureUpdate/LargeStep/DeformErode/JobErode.odb,Step-1,Increment      1: Step Time =,    10.00,"TUBE-1",          1643,  -3.50742E-03,  -3.56342E-03,      125.E-03,NA,NA,"",   5.00000E-03,            0.,      125.E-03,            0.,            0.
C:/ALETube/PressureUpdate/LargeStep/DeformErode/JobErode.odb,Step-1,Increment      1: Step Time =,    10.00,"TUBE-1",          1702,  -2.92791E-03,  -4.05307E-03,      125.E-03,NA,NA,"",   5.00000E-03,            0.,      125.E-03,            0.,            0.
C:/ALETube/PressureUpdate/LargeStep/DeformErode/JobErode.odb,Step-1,Increment      1: Step Time =,    10.00,"TUBE-1",          1866,  -2.92791E-03,  -4.05307E-03,   137.500E-03,NA,NA,"",   5.00000E-03,            0.,   137.500E-03,            0.,            0.
C:/ALETube/PressureUpdate/LargeStep/DeformErode/JobErode.odb,Step-1,Increment      1: Step Time =,    10.00,"TUBE-1",          1807,  -3.50742E-03,  -3.56342E-03,   137.500E-03,NA,NA,"",   5.00000E-03,            0.,   137.500E-03,            0.,            0.
C:/ALETube/PressureUpdate/LargeStep/DeformErode/JobErode.odb,Step-1,Increment      1: Step Time =,    10.00,"TUBE-1",          2030,  -2.92791E-03,  -4.05307E-03,   150.000E-03,NA,NA,"",   5.00000E-03,            0.,   150.000E-03,            0.,            0.
C:/ALETube/PressureUpdate/LargeStep/DeformErode/JobErode.odb,Step-1,Increment      1: Step Time =,    10.00,"TUBE-1",          1971,  -3.50742E-03,  -3.56342E-03,   150.000E-03,NA,NA,"",   5.00000E-03,            0.,   150.000E-03,            0.,            0.
C:/ALETube/PressureUpdate/LargeStep/DeformErode/JobErode.odb,Step-1,Increment      1: Step Time =,    10.00,"TUBE-1",          2194,  -2.92791E-03,  -4.05307E-03,   162.500E-03,NA,NA,"",   5.00000E-03,            0.,   162.500E-03,            0.,            0.
C:/ALETube/PressureUpdate/LargeStep/DeformErode/JobErode.odb,Step-1,Increment      1: Step Time =,    10.00,"TUBE-1",          2135,  -3.50742E-03,  -3.56342E-03,   162.500E-03,NA,NA,"",   5.00000E-03,            0.,   162.500E-03,            0.,            0.
C:/ALETube/PressureUpdate/LargeStep/DeformErode/JobErode.odb,Step-1,Increment      1: Step Time =,    10.00,"TUBE-1",          2358,  -2.92791E-03,  -4.05307E-03,   175.000E-03,NA,NA,"",   5.00000E-03,            0.,   175.000E-03,            0.,            0.
C:/ALETube/PressureUpdate/LargeStep/DeformErode/JobErode.odb,Step-1,Increment      1: Step Time =,    10.00,"TUBE-1",          2299,  -3.50742E-03,  -3.56342E-03,   175.000E-03,NA,NA,"",   5.00000E-03,            0.,   175.000E-03,            0.,            0.
C:/ALETube/PressureUpdate/LargeStep/DeformErode/JobErode.odb,Step-1,Increment      1: Step Time =,    10.00,"TUBE-1",          2463,  -3.50742E-03,  -3.56342E-03,     187.5E-03,NA,NA,"",   5.00000E-03,            0.,     187.5E-03,            0.,            0.
C:/ALETube/PressureUpdate/LargeStep/DeformErode/JobErode.odb,Step-1,Increment      1: Step Time =,    10.00,"TUBE-1",          2522,  -2.92791E-03,  -4.05307E-03,     187.5E-03,NA,NA,"",   5.00000E-03,            0.,     187.5E-03,            0.,            0.
C:/ALETube/PressureUpdate/LargeStep/DeformErode/JobErode.odb,Step-1,Increment      1: Step Time =,    10.00,"TUBE-1",          2686,  -2.92791E-03,  -4.05307E-03,   200.000E-03,NA,NA,"",   5.00000E-03,            0.,   200.000E-03,            0.,            0.
C:/ALETube/PressureUpdate/LargeStep/DeformErode/JobErode.odb,Step-1,Increment      1: Step Time =,    10.00,"TUBE-1",          2627,  -3.50742E-03,  -3.56342E-03,   200.000E-03,NA,NA,"",   5.00000E-03,            0.,   200.000E-03,            0.,            0.
C:/ALETube/PressureUpdate/LargeStep/DeformErode/JobErode.odb,Step-1,Increment      1: Step Time =,    10.00,"TUBE-1",          2850,  -2.92791E-03,  -4.05307E-03,   212.500E-03,NA,NA,"",   5.00000E-03,            0.,   212.500E-03,            0.,            0.
C:/ALETube/PressureUpdate/LargeStep/DeformErode/JobErode.odb,Step-1,Increment      1: Step Time =,    10.00,"TUBE-1",          2791,  -3.50742E-03,  -3.56342E-03,   212.500E-03,NA,NA,"",   5.00000E-03,            0.,   212.500E-03,            0.,            0.
C:/ALETube/PressureUpdate/LargeStep/DeformErode/JobErode.odb,Step-1,Increment      1: Step Time =,    10.00,"TUBE-1",          3014,  -2.92791E-03,  -4.05307E-03,   225.000E-03,NA,NA,"",   5.00000E-03,            0.,   225.000E-03,            0.,            0.
C:/ALETube/PressureUpdate/LargeStep/DeformErode/JobErode.odb,Step-1,Increment      1: Step Time =,    10.00,"TUBE-1",          2955,  -3.50742E-03,  -3.56342E-03,   225.000E-03,NA,NA,"",   5.00000E-03,            0.,   225.000E-03,            0.,            0.
C:/ALETube/PressureUpdate/LargeStep/DeformErode/JobErode.odb,Step-1,Increment      1: Step Time =,    10.00,"TUBE-1",          3178,  -2.92791E-03,  -4.05307E-03,   237.500E-03,NA,NA,"",   5.00000E-03,            0.,   237.500E-03,            0.,            0.
C:/ALETube/PressureUpdate/LargeStep/DeformErode/JobErode.odb,Step-1,Increment      1: Step Time =,    10.00,"TUBE-1",          3119,  -3.50742E-03,  -3.56342E-03,   237.500E-03,NA,NA,"",   5.00000E-03,            0.,   237.500E-03,            0.,            0.
C:/ALETube/PressureUpdate/LargeStep/DeformErode/JobErode.odb,Step-1,Increment      1: Step Time =,    10.00,"TUBE-1",          3283,  -3.50742E-03,  -3.56342E-03,      250.E-03,NA,NA,"",   5.00000E-03,            0.,      250.E-03,            0.,            0.
C:/ALETube/PressureUpdate/LargeStep/DeformErode/JobErode.odb,Step-1,Increment      1: Step Time =,    10.00,"TUBE-1",          3342,  -2.92791E-03,  -4.05307E-03,      250.E-03,NA,NA,"",   5.00000E-03,            0.,      250.E-03,            0.,            0.
C:/ALETube/PressureUpdate/LargeStep/DeformErode/JobErode.odb,Step-1,Increment      1: Step Time =,    10.00,"TUBE-1",          3506,  -2.92791E-03,  -4.05307E-03,   262.500E-03,NA,NA,"",   5.00000E-03,            0.,   262.500E-03,            0.,            0.
C:/ALETube/PressureUpdate/LargeStep/DeformErode/JobErode.odb,Step-1,Increment      1: Step Time =,    10.00,"TUBE-1",          3447,  -3.50742E-03,  -3.56342E-03,   262.500E-03,NA,NA,"",   5.00000E-03,            0.,   262.500E-03,            0.,            0.
C:/ALETube/PressureUpdate/LargeStep/DeformErode/JobErode.odb,Step-1,Increment      1: Step Time =,    10.00,"TUBE-1",          3670,  -2.92791E-03,  -4.05307E-03,   275.000E-03,NA,NA,"",   5.00000E-03,            0.,   275.000E-03,            0.,            0.
C:/ALETube/PressureUpdate/LargeStep/DeformErode/JobErode.odb,Step-1,Increment      1: Step Time =,    10.00,"TUBE-1",          3611,  -3.50742E-03,  -3.56342E-03,   275.000E-03,NA,NA,"",   5.00000E-03,            0.,   275.000E-03,            0.,            0.
C:/ALETube/PressureUpdate/LargeStep/DeformErode/JobErode.odb,Step-1,Increment      1: Step Time =,    10.00,"TUBE-1",          3834,  -2.92791E-03,  -4.05307E-03,   287.500E-03,NA,NA,"",   5.00000E-03,            0.,   287.500E-03,            0.,            0.
C:/ALETube/PressureUpdate/LargeStep/DeformErode/JobErode.odb,Step-1,Increment      1: Step Time =,    10.00,"TUBE-1",          3775,  -3.50742E-03,  -3.56342E-03,   287.500E-03,NA,NA,"",   5.00000E-03,            0.,   287.500E-03,            0.,            0.
C:/ALETube/PressureUpdate/LargeStep/DeformErode/JobErode.odb,Step-1,Increment      1: Step Time =,    10.00,"TUBE-1",          3998,  -2.92791E-03,  -4.05307E-03,   300.000E-03,NA,NA,"",   5.00000E-03,            0.,   300.000E-03,            0.,            0.
C:/ALETube/PressureUpdate/LargeStep/DeformErode/JobErode.odb,Step-1,Increment      1: Step Time =,    10.00,"TUBE-1",          3939,  -3.50742E-03,  -3.56342E-03,   300.000E-03,NA,NA,"",   5.00000E-03,            0.,   300.000E-03,            0.,            0.
C:/ALETube/PressureUpdate/LargeStep/DeformErode/JobErode.odb,Step-1,Increment      1: Step Time =,    10.00,"TUBE-1",          4103,  -3.50742E-03,  -3.56342E-03,     312.5E-03,NA,NA,"",   5.00000E-03,            0.,     312.5E-03,            0.,            0.
C:/ALETube/PressureUpdate/LargeStep/DeformErode/JobErode.odb,Step-1,Increment      1: Step Time =,    10.00,"TUBE-1",          4162,  -2.92791E-03,  -4.05307E-03,     312.5E-03,NA,NA,"",   5.00000E-03,            0.,     312.5E-03,            0.,            0.
C:/ALETube/PressureUpdate/LargeStep/DeformErode/JobErode.odb,Step-1,Increment      1: Step Time =,    10.00,"TUBE-1",          4326,  -2.92791E-03,  -4.05307E-03,   325.000E-03,NA,NA,"",   5.00000E-03,            0.,   325.000E-03,            0.,            0.
C:/ALETube/PressureUpdate/LargeStep/DeformErode/JobErode.odb,Step-1,Increment      1: Step Time =,    10.00,"TUBE-1",          4267,  -3.50742E-03,  -3.56342E-03,   325.000E-03,NA,NA,"",   5.00000E-03,            0.,   325.000E-03,            0.,            0.
C:/ALETube/PressureUpdate/LargeStep/DeformErode/JobErode.odb,Step-1,Increment      1: Step Time =,    10.00,"TUBE-1",          4490,  -2.92791E-03,  -4.05307E-03,   337.500E-03,NA,NA,"",   5.00000E-03,            0.,   337.500E-03,            0.,            0.
C:/ALETube/PressureUpdate/LargeStep/DeformErode/JobErode.odb,Step-1,Increment      1: Step Time =,    10.00,"TUBE-1",          4431,  -3.50742E-03,  -3.56342E-03,   337.500E-03,NA,NA,"",   5.00000E-03,            0.,   337.500E-03,            0.,            0.
C:/ALETube/PressureUpdate/LargeStep/DeformErode/JobErode.odb,Step-1,Increment      1: Step Time =,    10.00,"TUBE-1",          4654,  -2.92791E-03,  -4.05307E-03,   350.000E-03,NA,NA,"",   5.00000E-03,            0.,   350.000E-03,            0.,            0.
C:/ALETube/PressureUpdate/LargeStep/DeformErode/JobErode.odb,Step-1,Increment      1: Step Time =,    10.00,"TUBE-1",          4595,  -3.50742E-03,  -3.56342E-03,   350.000E-03,NA,NA,"",   5.00000E-03,            0.,   350.000E-03,            0.,            0.
C:/ALETube/PressureUpdate/LargeStep/DeformErode/JobErode.odb,Step-1,Increment      1: Step Time =,    10.00,"TUBE-1",          4818,  -2.92791E-03,  -4.05307E-03,   362.500E-03,NA,NA,"",   5.00000E-03,            0.,   362.500E-03,            0.,            0.
C:/ALETube/PressureUpdate/LargeStep/DeformErode/JobErode.odb,Step-1,Increment      1: Step Time =,    10.00,"TUBE-1",          4759,  -3.50742E-03,  -3.56342E-03,   362.500E-03,NA,NA,"",   5.00000E-03,            0.,   362.500E-03,            0.,            0.
C:/ALETube/PressureUpdate/LargeStep/DeformErode/JobErode.odb,Step-1,Increment      1: Step Time =,    10.00,"TUBE-1",          4923,  -3.50742E-03,  -3.56342E-03,      375.E-03,NA,NA,"",   5.00000E-03,            0.,      375.E-03,            0.,            0.
C:/ALETube/PressureUpdate/LargeStep/DeformErode/JobErode.odb,Step-1,Increment      1: Step Time =,    10.00,"TUBE-1",          4982,  -2.92791E-03,  -4.05307E-03,      375.E-03,NA,NA,"",   5.00000E-03,            0.,      375.E-03,            0.,            0.
C:/ALETube/PressureUpdate/LargeStep/DeformErode/JobErode.odb,Step-1,Increment      1: Step Time =,    10.00,"TUBE-1",          5146,  -2.92791E-03,  -4.05307E-03,   387.500E-03,NA,NA,"",   5.00000E-03,            0.,   387.500E-03,            0.,            0.
C:/ALETube/PressureUpdate/LargeStep/DeformErode/JobErode.odb,Step-1,Increment      1: Step Time =,    10.00,"TUBE-1",          5087,  -3.50742E-03,  -3.56342E-03,   387.500E-03,NA,NA,"",   5.00000E-03,            0.,   387.500E-03,            0.,            0.
C:/ALETube/PressureUpdate/LargeStep/DeformErode/JobErode.odb,Step-1,Increment      1: Step Time =,    10.00,"TUBE-1",          5310,  -2.92791E-03,  -4.05307E-03,   400.000E-03,NA,NA,"",   5.00000E-03,            0.,   400.000E-03,            0.,            0.
C:/ALETube/PressureUpdate/LargeStep/DeformErode/JobErode.odb,Step-1,Increment      1: Step Time =,    10.00,"TUBE-1",          5251,  -3.50742E-03,  -3.56342E-03,   400.000E-03,NA,NA,"",   5.00000E-03,            0.,   400.000E-03,            0.,            0.
C:/ALETube/PressureUpdate/LargeStep/DeformErode/JobErode.odb,Step-1,Increment      1: Step Time =,    10.00,"TUBE-1",          5474,  -2.92791E-03,  -4.05307E-03,   412.500E-03,NA,NA,"",   5.00000E-03,            0.,   412.500E-03,            0.,            0.
C:/ALETube/PressureUpdate/LargeStep/DeformErode/JobErode.odb,Step-1,Increment      1: Step Time =,    10.00,"TUBE-1",          5415,  -3.50742E-03,  -3.56342E-03,   412.500E-03,NA,NA,"",   5.00000E-03,            0.,   412.500E-03,            0.,            0.
C:/ALETube/PressureUpdate/LargeStep/DeformErode/JobErode.odb,Step-1,Increment      1: Step Time =,    10.00,"TUBE-1",          5638,  -2.92791E-03,  -4.05307E-03,   425.000E-03,NA,NA,"",   5.00000E-03,            0.,   425.000E-03,            0.,            0.
C:/ALETube/PressureUpdate/LargeStep/DeformErode/JobErode.odb,Step-1,Increment      1: Step Time =,    10.00,"TUBE-1",          5579,  -3.50742E-03,  -3.56342E-03,   425.000E-03,NA,NA,"",   5.00000E-03,            0.,   425.000E-03,            0.,            0.
C:/ALETube/PressureUpdate/LargeStep/DeformErode/JobErode.odb,Step-1,Increment      1: Step Time =,    10.00,"TUBE-1",          5743,  -3.50742E-03,  -3.56342E-03,     437.5E-03,NA,NA,"",   5.00000E-03,            0.,     437.5E-03,            0.,            0.
C:/ALETube/PressureUpdate/LargeStep/DeformErode/JobErode.odb,Step-1,Increment      1: Step Time =,    10.00,"TUBE-1",          5802,  -2.92791E-03,  -4.05307E-03,     437.5E-03,NA,NA,"",   5.00000E-03,            0.,     437.5E-03,            0.,            0.
C:/ALETube/PressureUpdate/LargeStep/DeformErode/JobErode.odb,Step-1,Increment      1: Step Time =,    10.00,"TUBE-1",          5966,  -2.92791E-03,  -4.05307E-03,   450.000E-03,NA,NA,"",   5.00000E-03,            0.,   450.000E-03,            0.,            0.
C:/ALETube/PressureUpdate/LargeStep/DeformErode/JobErode.odb,Step-1,Increment      1: Step Time =,    10.00,"TUBE-1",          5907,  -3.50742E-03,  -3.56342E-03,   450.000E-03,NA,NA,"",   5.00000E-03,            0.,   450.000E-03,            0.,            0.
C:/ALETube/PressureUpdate/LargeStep/DeformErode/JobErode.odb,Step-1,Increment      1: Step Time =,    10.00,"TUBE-1",          6130,  -2.92791E-03,  -4.05307E-03,   462.500E-03,NA,NA,"",   5.00000E-03,            0.,   462.500E-03,            0.,            0.
C:/ALETube/PressureUpdate/LargeStep/DeformErode/JobErode.odb,Step-1,Increment      1: Step Time =,    10.00,"TUBE-1",          6071,  -3.50742E-03,  -3.56342E-03,   462.500E-03,NA,NA,"",   5.00000E-03,            0.,   462.500E-03,            0.,            0.
C:/ALETube/PressureUpdate/LargeStep/DeformErode/JobErode.odb,Step-1,Increment      1: Step Time =,    10.00,"TUBE-1",          6294,  -2.92791E-03,  -4.05307E-03,   475.000E-03,NA,NA,"",   5.00000E-03,            0.,   475.000E-03,            0.,            0.
C:/ALETube/PressureUpdate/LargeStep/DeformErode/JobErode.odb,Step-1,Increment      1: Step Time =,    10.00,"TUBE-1",          6235,  -3.50742E-03,  -3.56342E-03,   475.000E-03,NA,NA,"",   5.00000E-03,            0.,   475.000E-03,            0.,            0.
C:/ALETube/PressureUpdate/LargeStep/DeformErode/JobErode.odb,Step-1,Increment      1: Step Time =,    10.00,"TUBE-1",          6458,  -2.92791E-03,  -4.05307E-03,   487.500E-03,NA,NA,"",   5.00000E-03,            0.,   487.500E-03,            0.,            0.
C:/ALETube/PressureUpdate/LargeStep/DeformErode/JobErode.odb,Step-1,Increment      1: Step Time =,    10.00,"TUBE-1",          6399,  -3.50742E-03,  -3.56342E-03,   487.500E-03,NA,NA,"",   5.00000E-03,            0.,   487.500E-03,            0.,            0.
C:/ALETube/PressureUpdate/LargeStep/DeformErode/JobErode.odb,Step-1,Increment      1: Step Time =,    10.00,"TUBE-1",          6563,  -3.50742E-03,  -3.56342E-03,      500.E-03,NA,NA,"",   5.00000E-03,            0.,      500.E-03,            0.,            0.
C:/ALETube/PressureUpdate/LargeStep/DeformErode/JobErode.odb,Step-1,Increment      1: Step Time =,    10.00,"TUBE-1",          6622,  -2.92791E-03,  -4.05307E-03,      500.E-03,NA,NA,"",   5.00000E-03,            0.,      500.E-03,            0.,            0.
C:/ALETube/PressureUpdate/LargeStep/DeformErode/JobErode.odb,Step-1,Increment      1: Step Time =,    10.00,"TUBE-1",          6786,  -2.92791E-03,  -4.05307E-03,   512.500E-03,NA,NA,"",   5.00000E-03,            0.,   512.500E-03,            0.,            0.
C:/ALETube/PressureUpdate/LargeStep/DeformErode/JobErode.odb,Step-1,Increment      1: Step Time =,    10.00,"TUBE-1",          6727,  -3.50742E-03,  -3.56342E-03,   512.500E-03,NA,NA,"",   5.00000E-03,            0.,   512.500E-03,            0.,            0.
C:/ALETube/PressureUpdate/LargeStep/DeformErode/JobErode.odb,Step-1,Increment      1: Step Time =,    10.00,"TUBE-1",          6950,  -2.92791E-03,  -4.05307E-03,   525.000E-03,NA,NA,"",   5.00000E-03,            0.,   525.000E-03,            0.,            0.
C:/ALETube/PressureUpdate/LargeStep/DeformErode/JobErode.odb,Step-1,Increment      1: Step Time =,    10.00,"TUBE-1",          6891,  -3.50742E-03,  -3.56342E-03,   525.000E-03,NA,NA,"",   5.00000E-03,            0.,   525.000E-03,            0.,            0.
C:/ALETube/PressureUpdate/LargeStep/DeformErode/JobErode.odb,Step-1,Increment      1: Step Time =,    10.00,"TUBE-1",          7114,  -2.92791E-03,  -4.05307E-03,   537.500E-03,NA,NA,"",   5.00000E-03,            0.,   537.500E-03,            0.,            0.
C:/ALETube/PressureUpdate/LargeStep/DeformErode/JobErode.odb,Step-1,Increment      1: Step Time =,    10.00,"TUBE-1",          7055,  -3.50742E-03,  -3.56342E-03,   537.500E-03,NA,NA,"",   5.00000E-03,            0.,   537.500E-03,            0.,            0.
C:/ALETube/PressureUpdate/LargeStep/DeformErode/JobErode.odb,Step-1,Increment      1: Step Time =,    10.00,"TUBE-1",          7278,  -2.92791E-03,  -4.05307E-03,   550.000E-03,NA,NA,"",   5.00000E-03,            0.,   550.000E-03,            0.,            0.
C:/ALETube/PressureUpdate/LargeStep/DeformErode/JobErode.odb,Step-1,Increment      1: Step Time =,    10.00,"TUBE-1",          7219,  -3.50742E-03,  -3.56342E-03,   550.000E-03,NA,NA,"",   5.00000E-03,            0.,   550.000E-03,            0.,            0.
C:/ALETube/PressureUpdate/LargeStep/DeformErode/JobErode.odb,Step-1,Increment      1: Step Time =,    10.00,"TUBE-1",          7383,  -3.50742E-03,  -3.56342E-03,     562.5E-03,NA,NA,"",   5.00000E-03,            0.,     562.5E-03,            0.,            0.
C:/ALETube/PressureUpdate/LargeStep/DeformErode/JobErode.odb,Step-1,Increment      1: Step Time =,    10.00,"TUBE-1",          7442,  -2.92791E-03,  -4.05307E-03,     562.5E-03,NA,NA,"",   5.00000E-03,            0.,     562.5E-03,            0.,            0.
C:/ALETube/PressureUpdate/LargeStep/DeformErode/JobErode.odb,Step-1,Increment      1: Step Time =,    10.00,"TUBE-1",          7606,  -2.92791E-03,  -4.05307E-03,   575.000E-03,NA,NA,"",   5.00000E-03,            0.,   575.000E-03,            0.,            0.
C:/ALETube/PressureUpdate/LargeStep/DeformErode/JobErode.odb,Step-1,Increment      1: Step Time =,    10.00,"TUBE-1",          7547,  -3.50742E-03,  -3.56342E-03,   575.000E-03,NA,NA,"",   5.00000E-03,            0.,   575.000E-03,            0.,            0.
C:/ALETube/PressureUpdate/LargeStep/DeformErode/JobErode.odb,Step-1,Increment      1: Step Time =,    10.00,"TUBE-1",          7770,  -2.92791E-03,  -4.05307E-03,   587.500E-03,NA,NA,"",   5.00000E-03,            0.,   587.500E-03,            0.,            0.
C:/ALETube/PressureUpdate/LargeStep/DeformErode/JobErode.odb,Step-1,Increment      1: Step Time =,    10.00,"TUBE-1",          7711,  -3.50742E-03,  -3.56342E-03,   587.500E-03,NA,NA,"",   5.00000E-03,            0.,   587.500E-03,            0.,            0.
C:/ALETube/PressureUpdate/LargeStep/DeformErode/JobErode.odb,Step-1,Increment      1: Step Time =,    10.00,"TUBE-1",          7934,  -2.92791E-03,  -4.05307E-03,   600.000E-03,NA,NA,"",   5.00000E-03,            0.,   600.000E-03,            0.,            0.
C:/ALETube/PressureUpdate/LargeStep/DeformErode/JobErode.odb,Step-1,Increment      1: Step Time =,    10.00,"TUBE-1",          7875,  -3.50742E-03,  -3.56342E-03,   600.000E-03,NA,NA,"",   5.00000E-03,            0.,   600.000E-03,            0.,            0.
C:/ALETube/PressureUpdate/LargeStep/DeformErode/JobErode.odb,Step-1,Increment      1: Step Time =,    10.00,"TUBE-1",          8098,  -2.92791E-03,  -4.05307E-03,   612.500E-03,NA,NA,"",   5.00000E-03,            0.,   612.500E-03,            0.,            0.
C:/ALETube/PressureUpdate/LargeStep/DeformErode/JobErode.odb,Step-1,Increment      1: Step Time =,    10.00,"TUBE-1",          8039,  -3.50742E-03,  -3.56342E-03,   612.500E-03,NA,NA,"",   5.00000E-03,            0.,   612.500E-03,            0.,            0.
C:/ALETube/PressureUpdate/LargeStep/DeformErode/JobErode.odb,Step-1,Increment      1: Step Time =,    10.00,"TUBE-1",          8203,  -3.50742E-03,  -3.56342E-03,      625.E-03,NA,NA,"",   5.00000E-03,            0.,      625.E-03,            0.,            0.
C:/ALETube/PressureUpdate/LargeStep/DeformErode/JobErode.odb,Step-1,Increment      1: Step Time =,    10.00,"TUBE-1",          8262,  -2.92791E-03,  -4.05307E-03,      625.E-03,NA,NA,"",   5.00000E-03,            0.,      625.E-03,            0.,            0.
C:/ALETube/PressureUpdate/LargeStep/DeformErode/JobErode.odb,Step-1,Increment      1: Step Time =,    10.00,"TUBE-1",          8426,  -2.92791E-03,  -4.05307E-03,   637.500E-03,NA,NA,"",   5.00000E-03,            0.,   637.500E-03,            0.,            0.
C:/ALETube/PressureUpdate/LargeStep/DeformErode/JobErode.odb,Step-1,Increment      1: Step Time =,    10.00,"TUBE-1",          8367,  -3.50742E-03,  -3.56342E-03,   637.500E-03,NA,NA,"",   5.00000E-03,            0.,   637.500E-03,            0.,            0.
C:/ALETube/PressureUpdate/LargeStep/DeformErode/JobErode.odb,Step-1,Increment      1: Step Time =,    10.00,"TUBE-1",          8590,  -2.92791E-03,  -4.05307E-03,   650.000E-03,NA,NA,"",   5.00000E-03,            0.,   650.000E-03,            0.,            0.
C:/ALETube/PressureUpdate/LargeStep/DeformErode/JobErode.odb,Step-1,Increment      1: Step Time =,    10.00,"TUBE-1",          8531,  -3.50742E-03,  -3.56342E-03,   650.000E-03,NA,NA,"",   5.00000E-03,            0.,   650.000E-03,            0.,            0.
C:/ALETube/PressureUpdate/LargeStep/DeformErode/JobErode.odb,Step-1,Increment      1: Step Time =,    10.00,"TUBE-1",          8754,  -2.92791E-03,  -4.05307E-03,   662.500E-03,NA,NA,"",   5.00000E-03,            0.,   662.500E-03,            0.,            0.
C:/ALETube/PressureUpdate/LargeStep/DeformErode/JobErode.odb,Step-1,Increment      1: Step Time =,    10.00,"TUBE-1",          8695,  -3.50742E-03,  -3.56342E-03,   662.500E-03,NA,NA,"",   5.00000E-03,            0.,   662.500E-03,            0.,            0.
C:/ALETube/PressureUpdate/LargeStep/DeformErode/JobErode.odb,Step-1,Increment      1: Step Time =,    10.00,"TUBE-1",          8918,  -2.92791E-03,  -4.05307E-03,   675.000E-03,NA,NA,"",   5.00000E-03,            0.,   675.000E-03,            0.,            0.
C:/ALETube/PressureUpdate/LargeStep/DeformErode/JobErode.odb,Step-1,Increment      1: Step Time =,    10.00,"TUBE-1",          8859,  -3.50742E-03,  -3.56342E-03,   675.000E-03,NA,NA,"",   5.00000E-03,            0.,   675.000E-03,            0.,            0.
C:/ALETube/PressureUpdate/LargeStep/DeformErode/JobErode.odb,Step-1,Increment      1: Step Time =,    10.00,"TUBE-1",          9023,  -3.50742E-03,  -3.56342E-03,     687.5E-03,NA,NA,"",   5.00000E-03,            0.,     687.5E-03,            0.,            0.
C:/ALETube/PressureUpdate/LargeStep/DeformErode/JobErode.odb,Step-1,Increment      1: Step Time =,    10.00,"TUBE-1",          9082,  -2.92791E-03,  -4.05307E-03,     687.5E-03,NA,NA,"",   5.00000E-03,            0.,     687.5E-03,            0.,            0.
C:/ALETube/PressureUpdate/LargeStep/DeformErode/JobErode.odb,Step-1,Increment      1: Step Time =,    10.00,"TUBE-1",          9246,  -2.92791E-03,  -4.05307E-03,   700.000E-03,NA,NA,"",   5.00000E-03,            0.,   700.000E-03,            0.,            0.
C:/ALETube/PressureUpdate/LargeStep/DeformErode/JobErode.odb,Step-1,Increment      1: Step Time =,    10.00,"TUBE-1",          9187,  -3.50742E-03,  -3.56342E-03,   700.000E-03,NA,NA,"",   5.00000E-03,            0.,   700.000E-03,            0.,            0.
C:/ALETube/PressureUpdate/LargeStep/DeformErode/JobErode.odb,Step-1,Increment      1: Step Time =,    10.00,"TUBE-1",          9410,  -2.92791E-03,  -4.05307E-03,   712.500E-03,NA,NA,"",   5.00000E-03,            0.,   712.500E-03,            0.,            0.
C:/ALETube/PressureUpdate/LargeStep/DeformErode/JobErode.odb,Step-1,Increment      1: Step Time =,    10.00,"TUBE-1",          9351,  -3.50742E-03,  -3.56342E-03,   712.500E-03,NA,NA,"",   5.00000E-03,            0.,   712.500E-03,            0.,            0.
C:/ALETube/PressureUpdate/LargeStep/DeformErode/JobErode.odb,Step-1,Increment      1: Step Time =,    10.00,"TUBE-1",          9574,  -2.92791E-03,  -4.05307E-03,   725.000E-03,NA,NA,"",   5.00000E-03,            0.,   725.000E-03,            0.,            0.
C:/ALETube/PressureUpdate/LargeStep/DeformErode/JobErode.odb,Step-1,Increment      1: Step Time =,    10.00,"TUBE-1",          9515,  -3.50742E-03,  -3.56342E-03,   725.000E-03,NA,NA,"",   5.00000E-03,            0.,   725.000E-03,            0.,            0.
C:/ALETube/PressureUpdate/LargeStep/DeformErode/JobErode.odb,Step-1,Increment      1: Step Time =,    10.00,"TUBE-1",          9738,  -2.92791E-03,  -4.05307E-03,   737.500E-03,NA,NA,"",   5.00000E-03,            0.,   737.500E-03,            0.,            0.
C:/ALETube/PressureUpdate/LargeStep/DeformErode/JobErode.odb,Step-1,Increment      1: Step Time =,    10.00,"TUBE-1",          9679,  -3.50742E-03,  -3.56342E-03,   737.500E-03,NA,NA,"",   5.00000E-03,            0.,   737.500E-03,            0.,            0.
C:/ALETube/PressureUpdate/LargeStep/DeformErode/JobErode.odb,Step-1,Increment      1: Step Time =,    10.00,"TUBE-1",          9843,  -3.50742E-03,  -3.56342E-03,      750.E-03,NA,NA,"",   5.00000E-03,            0.,      750.E-03,            0.,            0.
C:/ALETube/PressureUpdate/LargeStep/DeformErode/JobErode.odb,Step-1,Increment      1: Step Time =,    10.00,"TUBE-1",          9902,  -2.92791E-03,  -4.05307E-03,      750.E-03,NA,NA,"",   5.00000E-03,            0.,      750.E-03,            0.,            0.
C:/ALETube/PressureUpdate/LargeStep/DeformErode/JobErode.odb,Step-1,Increment      1: Step Time =,    10.00,"TUBE-1",         10066,  -2.92791E-03,  -4.05307E-03,   762.500E-03,NA,NA,"",   5.00000E-03,            0.,   762.500E-03,            0.,            0.
C:/ALETube/PressureUpdate/LargeStep/DeformErode/JobErode.odb,Step-1,Increment      1: Step Time =,    10.00,"TUBE-1",         10007,  -3.50742E-03,  -3.56342E-03,   762.500E-03,NA,NA,"",   5.00000E-03,            0.,   762.500E-03,            0.,            0.
C:/ALETube/PressureUpdate/LargeStep/DeformErode/JobErode.odb,Step-1,Increment      1: Step Time =,    10.00,"TUBE-1",         10230,  -2.92791E-03,  -4.05307E-03,   775.000E-03,NA,NA,"",   5.00000E-03,            0.,   775.000E-03,            0.,            0.
C:/ALETube/PressureUpdate/LargeStep/DeformErode/JobErode.odb,Step-1,Increment      1: Step Time =,    10.00,"TUBE-1",         10171,  -3.50742E-03,  -3.56342E-03,   775.000E-03,NA,NA,"",   5.00000E-03,            0.,   775.000E-03,            0.,            0.
C:/ALETube/PressureUpdate/LargeStep/DeformErode/JobErode.odb,Step-1,Increment      1: Step Time =,    10.00,"TUBE-1",         10394,  -2.92791E-03,  -4.05307E-03,   787.500E-03,NA,NA,"",   5.00000E-03,            0.,   787.500E-03,            0.,            0.
C:/ALETube/PressureUpdate/LargeStep/DeformErode/JobErode.odb,Step-1,Increment      1: Step Time =,    10.00,"TUBE-1",         10335,  -3.50742E-03,  -3.56342E-03,   787.500E-03,NA,NA,"",   5.00000E-03,            0.,   787.500E-03,            0.,            0.
C:/ALETube/PressureUpdate/LargeStep/DeformErode/JobErode.odb,Step-1,Increment      1: Step Time =,    10.00,"TUBE-1",         10558,  -2.92791E-03,  -4.05307E-03,   800.000E-03,NA,NA,"",   5.00000E-03,            0.,   800.000E-03,            0.,            0.
C:/ALETube/PressureUpdate/LargeStep/DeformErode/JobErode.odb,Step-1,Increment      1: Step Time =,    10.00,"TUBE-1",         10499,  -3.50742E-03,  -3.56342E-03,   800.000E-03,NA,NA,"",   5.00000E-03,            0.,   800.000E-03,            0.,            0.
C:/ALETube/PressureUpdate/LargeStep/DeformErode/JobErode.odb,Step-1,Increment      1: Step Time =,    10.00,"TUBE-1",         10663,  -3.50742E-03,  -3.56342E-03,     812.5E-03,NA,NA,"",   5.00000E-03,            0.,     812.5E-03,            0.,            0.
C:/ALETube/PressureUpdate/LargeStep/DeformErode/JobErode.odb,Step-1,Increment      1: Step Time =,    10.00,"TUBE-1",         10722,  -2.92791E-03,  -4.05307E-03,     812.5E-03,NA,NA,"",   5.00000E-03,            0.,     812.5E-03,            0.,            0.
C:/ALETube/PressureUpdate/LargeStep/DeformErode/JobErode.odb,Step-1,Increment      1: Step Time =,    10.00,"TUBE-1",         10886,  -2.92791E-03,  -4.05307E-03,   825.000E-03,NA,NA,"",   5.00000E-03,            0.,   825.000E-03,            0.,            0.
C:/ALETube/PressureUpdate/LargeStep/DeformErode/JobErode.odb,Step-1,Increment      1: Step Time =,    10.00,"TUBE-1",         10827,  -3.50742E-03,  -3.56342E-03,   825.000E-03,NA,NA,"",   5.00000E-03,            0.,   825.000E-03,            0.,            0.
C:/ALETube/PressureUpdate/LargeStep/DeformErode/JobErode.odb,Step-1,Increment      1: Step Time =,    10.00,"TUBE-1",         11050,  -2.92791E-03,  -4.05307E-03,   837.500E-03,NA,NA,"",   5.00000E-03,            0.,   837.500E-03,            0.,            0.
C:/ALETube/PressureUpdate/LargeStep/DeformErode/JobErode.odb,Step-1,Increment      1: Step Time =,    10.00,"TUBE-1",         10991,  -3.50742E-03,  -3.56342E-03,   837.500E-03,NA,NA,"",   5.00000E-03,            0.,   837.500E-03,            0.,            0.
C:/ALETube/PressureUpdate/LargeStep/DeformErode/JobErode.odb,Step-1,Increment      1: Step Time =,    10.00,"TUBE-1",         11214,  -2.92791E-03,  -4.05307E-03,   850.000E-03,NA,NA,"",   5.00000E-03,            0.,   850.000E-03,            0.,            0.
C:/ALETube/PressureUpdate/LargeStep/DeformErode/JobErode.odb,Step-1,Increment      1: Step Time =,    10.00,"TUBE-1",         11155,  -3.50742E-03,  -3.56342E-03,   850.000E-03,NA,NA,"",   5.00000E-03,            0.,   850.000E-03,            0.,            0.
C:/ALETube/PressureUpdate/LargeStep/DeformErode/JobErode.odb,Step-1,Increment      1: Step Time =,    10.00,"TUBE-1",         11378,  -2.92791E-03,  -4.05307E-03,   862.500E-03,NA,NA,"",   5.00000E-03,            0.,   862.500E-03,            0.,            0.
C:/ALETube/PressureUpdate/LargeStep/DeformErode/JobErode.odb,Step-1,Increment      1: Step Time =,    10.00,"TUBE-1",         11319,  -3.50742E-03,  -3.56342E-03,   862.500E-03,NA,NA,"",   5.00000E-03,            0.,   862.500E-03,            0.,            0.
C:/ALETube/PressureUpdate/LargeStep/DeformErode/JobErode.odb,Step-1,Increment      1: Step Time =,    10.00,"TUBE-1",         11483,  -3.50742E-03,  -3.56342E-03,      875.E-03,NA,NA,"",   5.00000E-03,            0.,      875.E-03,            0.,            0.
C:/ALETube/PressureUpdate/LargeStep/DeformErode/JobErode.odb,Step-1,Increment      1: Step Time =,    10.00,"TUBE-1",         11542,  -2.92791E-03,  -4.05307E-03,      875.E-03,NA,NA,"",   5.00000E-03,            0.,      875.E-03,            0.,            0.
C:/ALETube/PressureUpdate/LargeStep/DeformErode/JobErode.odb,Step-1,Increment      1: Step Time =,    10.00,"TUBE-1",         11706,  -2.92791E-03,  -4.05307E-03,   887.500E-03,NA,NA,"",   5.00000E-03,            0.,   887.500E-03,            0.,            0.
C:/ALETube/PressureUpdate/LargeStep/DeformErode/JobErode.odb,Step-1,Increment      1: Step Time =,    10.00,"TUBE-1",         11647,  -3.50742E-03,  -3.56342E-03,   887.500E-03,NA,NA,"",   5.00000E-03,            0.,   887.500E-03,            0.,            0.
C:/ALETube/PressureUpdate/LargeStep/DeformErode/JobErode.odb,Step-1,Increment      1: Step Time =,    10.00,"TUBE-1",         11870,  -2.92791E-03,  -4.05307E-03,   900.000E-03,NA,NA,"",   5.00000E-03,            0.,   900.000E-03,            0.,            0.
C:/ALETube/PressureUpdate/LargeStep/DeformErode/JobErode.odb,Step-1,Increment      1: Step Time =,    10.00,"TUBE-1",         11811,  -3.50742E-03,  -3.56342E-03,   900.000E-03,NA,NA,"",   5.00000E-03,            0.,   900.000E-03,            0.,            0.
C:/ALETube/PressureUpdate/LargeStep/DeformErode/JobErode.odb,Step-1,Increment      1: Step Time =,    10.00,"TUBE-1",         12034,  -2.92791E-03,  -4.05307E-03,   912.500E-03,NA,NA,"",   5.00000E-03,            0.,   912.500E-03,            0.,            0.
C:/ALETube/PressureUpdate/LargeStep/DeformErode/JobErode.odb,Step-1,Increment      1: Step Time =,    10.00,"TUBE-1",         11975,  -3.50742E-03,  -3.56342E-03,   912.500E-03,NA,NA,"",   5.00000E-03,            0.,   912.500E-03,            0.,            0.
C:/ALETube/PressureUpdate/LargeStep/DeformErode/JobErode.odb,Step-1,Increment      1: Step Time =,    10.00,"TUBE-1",         12198,  -2.92791E-03,  -4.05307E-03,   925.000E-03,NA,NA,"",   5.00000E-03,            0.,   925.000E-03,            0.,            0.
C:/ALETube/PressureUpdate/LargeStep/DeformErode/JobErode.odb,Step-1,Increment      1: Step Time =,    10.00,"TUBE-1",         12139,  -3.50742E-03,  -3.56342E-03,   925.000E-03,NA,NA,"",   5.00000E-03,            0.,   925.000E-03,            0.,            0.
C:/ALETube/PressureUpdate/LargeStep/DeformErode/JobErode.odb,Step-1,Increment      1: Step Time =,    10.00,"TUBE-1",         12303,  -3.50742E-03,  -3.56342E-03,     937.5E-03,NA,NA,"",   5.00000E-03,            0.,     937.5E-03,            0.,            0.
C:/ALETube/PressureUpdate/LargeStep/DeformErode/JobErode.odb,Step-1,Increment      1: Step Time =,    10.00,"TUBE-1",         12362,  -2.92791E-03,  -4.05307E-03,     937.5E-03,NA,NA,"",   5.00000E-03,            0.,     937.5E-03,            0.,            0.
C:/ALETube/PressureUpdate/LargeStep/DeformErode/JobErode.odb,Step-1,Increment      1: Step Time =,    10.00,"TUBE-1",         12526,  -2.92791E-03,  -4.05307E-03,   950.000E-03,NA,NA,"",   5.00000E-03,            0.,   950.000E-03,            0.,            0.
C:/ALETube/PressureUpdate/LargeStep/DeformErode/JobErode.odb,Step-1,Increment      1: Step Time =,    10.00,"TUBE-1",         12467,  -3.50742E-03,  -3.56342E-03,   950.000E-03,NA,NA,"",   5.00000E-03,            0.,   950.000E-03,            0.,            0.
C:/ALETube/PressureUpdate/LargeStep/DeformErode/JobErode.odb,Step-1,Increment      1: Step Time =,    10.00,"TUBE-1",         12690,  -2.92791E-03,  -4.05307E-03,   962.500E-03,NA,NA,"",   5.00000E-03,            0.,   962.500E-03,            0.,            0.
C:/ALETube/PressureUpdate/LargeStep/DeformErode/JobErode.odb,Step-1,Increment      1: Step Time =,    10.00,"TUBE-1",         12631,  -3.50742E-03,  -3.56342E-03,   962.500E-03,NA,NA,"",   5.00000E-03,            0.,   962.500E-03,            0.,            0.
C:/ALETube/PressureUpdate/LargeStep/DeformErode/JobErode.odb,Step-1,Increment      1: Step Time =,    10.00,"TUBE-1",         12854,  -2.92791E-03,  -4.05307E-03,   975.000E-03,NA,NA,"",   5.00000E-03,            0.,   975.000E-03,            0.,            0.
C:/ALETube/PressureUpdate/LargeStep/DeformErode/JobErode.odb,Step-1,Increment      1: Step Time =,    10.00,"TUBE-1",         12795,  -3.50742E-03,  -3.56342E-03,   975.000E-03,NA,NA,"",   5.00000E-03,            0.,   975.000E-03,            0.,            0.
C:/ALETube/PressureUpdate/LargeStep/DeformErode/JobErode.odb,Step-1,Increment      1: Step Time =,    10.00,"TUBE-1",         13018,  -2.92791E-03,  -4.05307E-03,   987.500E-03,NA,NA,"",   5.00000E-03,            0.,   987.500E-03,            0.,            0.
C:/ALETube/PressureUpdate/LargeStep/DeformErode/JobErode.odb,Step-1,Increment      1: Step Time =,    10.00,"TUBE-1",         12959,  -3.50742E-03,  -3.56342E-03,   987.500E-03,NA,NA,"",   5.00000E-03,            0.,   987.500E-03,            0.,            0.
C:/ALETube/PressureUpdate/LargeStep/DeformErode/JobErode.odb,Step-1,Increment      1: Step Time =,    10.00,"TUBE-1",         13123,  -3.50742E-03,  -3.56342E-03,            1.,NA,NA,"",   5.00000E-03,            0.,            1.,            0.,            0.
C:/ALETube/PressureUpdate/LargeStep/DeformErode/JobErode.odb,Step-1,Increment      1: Step Time =,    10.00,"TUBE-1",         13182,  -2.92791E-03,  -4.05307E-03,            1.,NA,NA,"",   5.00000E-03,            0.,            1.,            0.,            0.
C:/ALETube/PressureUpdate/LargeStep/DeformErode/JobErode.odb,Step-1,Increment      1: Step Time =,    10.00,"TUBE-1",         13346,  -2.92791E-03,  -4.05307E-03,       1.01250,NA,NA,"",   5.00000E-03,            0.,       1.01250,            0.,            0.
C:/ALETube/PressureUpdate/LargeStep/DeformErode/JobErode.odb,Step-1,Increment      1: Step Time =,    10.00,"TUBE-1",         13287,  -3.50742E-03,  -3.56342E-03,       1.01250,NA,NA,"",   5.00000E-03,            0.,       1.01250,            0.,            0.
C:/ALETube/PressureUpdate/LargeStep/DeformErode/JobErode.odb,Step-1,Increment      1: Step Time =,    10.00,"TUBE-1",         13510,  -2.92791E-03,  -4.05307E-03,       1.02500,NA,NA,"",   5.00000E-03,            0.,       1.02500,            0.,            0.
C:/ALETube/PressureUpdate/LargeStep/DeformErode/JobErode.odb,Step-1,Increment      1: Step Time =,    10.00,"TUBE-1",         13451,  -3.50742E-03,  -3.56342E-03,       1.02500,NA,NA,"",   5.00000E-03,            0.,       1.02500,            0.,            0.
C:/ALETube/PressureUpdate/LargeStep/DeformErode/JobErode.odb,Step-1,Increment      1: Step Time =,    10.00,"TUBE-1",         13615,  -3.50742E-03,  -3.56342E-03,       1.03750,NA,NA,"",   5.00000E-03,            0.,       1.03750,            0.,            0.
C:/ALETube/PressureUpdate/LargeStep/DeformErode/JobErode.odb,Step-1,Increment      1: Step Time =,    10.00,"TUBE-1",         13674,  -2.92791E-03,  -4.05307E-03,       1.03750,NA,NA,"",   5.00000E-03,            0.,       1.03750,            0.,            0.
C:/ALETube/PressureUpdate/LargeStep/DeformErode/JobErode.odb,Step-1,Increment      1: Step Time =,    10.00,"TUBE-1",         13838,  -2.92791E-03,  -4.05307E-03,       1.05000,NA,NA,"",   5.00000E-03,            0.,       1.05000,            0.,            0.
C:/ALETube/PressureUpdate/LargeStep/DeformErode/JobErode.odb,Step-1,Increment      1: Step Time =,    10.00,"TUBE-1",         13779,  -3.50742E-03,  -3.56342E-03,       1.05000,NA,NA,"",   5.00000E-03,            0.,       1.05000,            0.,            0.
C:/ALETube/PressureUpdate/LargeStep/DeformErode/JobErode.odb,Step-1,Increment      1: Step Time =,    10.00,"TUBE-1",         14002,  -2.92791E-03,  -4.05307E-03,        1.0625,NA,NA,"",   5.00000E-03,            0.,        1.0625,            0.,            0.
C:/ALETube/PressureUpdate/LargeStep/DeformErode/JobErode.odb,Step-1,Increment      1: Step Time =,    10.00,"TUBE-1",         13943,  -3.50742E-03,  -3.56342E-03,        1.0625,NA,NA,"",   5.00000E-03,            0.,        1.0625,            0.,            0.
C:/ALETube/PressureUpdate/LargeStep/DeformErode/JobErode.odb,Step-1,Increment      1: Step Time =,    10.00,"TUBE-1",         14107,  -3.50742E-03,  -3.56342E-03,       1.07500,NA,NA,"",   5.00000E-03,            0.,       1.07500,            0.,            0.
C:/ALETube/PressureUpdate/LargeStep/DeformErode/JobErode.odb,Step-1,Increment      1: Step Time =,    10.00,"TUBE-1",         14166,  -2.92791E-03,  -4.05307E-03,       1.07500,NA,NA,"",   5.00000E-03,            0.,       1.07500,            0.,            0.
C:/ALETube/PressureUpdate/LargeStep/DeformErode/JobErode.odb,Step-1,Increment      1: Step Time =,    10.00,"TUBE-1",         14330,  -2.92791E-03,  -4.05307E-03,       1.08750,NA,NA,"",   5.00000E-03,            0.,       1.08750,            0.,            0.
C:/ALETube/PressureUpdate/LargeStep/DeformErode/JobErode.odb,Step-1,Increment      1: Step Time =,    10.00,"TUBE-1",         14271,  -3.50742E-03,  -3.56342E-03,       1.08750,NA,NA,"",   5.00000E-03,            0.,       1.08750,            0.,            0.
C:/ALETube/PressureUpdate/LargeStep/DeformErode/JobErode.odb,Step-1,Increment      1: Step Time =,    10.00,"TUBE-1",         14494,  -2.92791E-03,  -4.05307E-03,       1.10000,NA,NA,"",   5.00000E-03,            0.,       1.10000,            0.,            0.
C:/ALETube/PressureUpdate/LargeStep/DeformErode/JobErode.odb,Step-1,Increment      1: Step Time =,    10.00,"TUBE-1",         14435,  -3.50742E-03,  -3.56342E-03,       1.10000,NA,NA,"",   5.00000E-03,            0.,       1.10000,            0.,            0.
C:/ALETube/PressureUpdate/LargeStep/DeformErode/JobErode.odb,Step-1,Increment      1: Step Time =,    10.00,"TUBE-1",         14658,  -2.92791E-03,  -4.05307E-03,       1.11250,NA,NA,"",   5.00000E-03,            0.,       1.11250,            0.,            0.
C:/ALETube/PressureUpdate/LargeStep/DeformErode/JobErode.odb,Step-1,Increment      1: Step Time =,    10.00,"TUBE-1",         14599,  -3.50742E-03,  -3.56342E-03,       1.11250,NA,NA,"",   5.00000E-03,            0.,       1.11250,            0.,            0.
C:/ALETube/PressureUpdate/LargeStep/DeformErode/JobErode.odb,Step-1,Increment      1: Step Time =,    10.00,"TUBE-1",         14822,  -2.92791E-03,  -4.05307E-03,         1.125,NA,NA,"",   5.00000E-03,            0.,         1.125,            0.,            0.
C:/ALETube/PressureUpdate/LargeStep/DeformErode/JobErode.odb,Step-1,Increment      1: Step Time =,    10.00,"TUBE-1",         14763,  -3.50742E-03,  -3.56342E-03,         1.125,NA,NA,"",   5.00000E-03,            0.,         1.125,            0.,            0.
C:/ALETube/PressureUpdate/LargeStep/DeformErode/JobErode.odb,Step-1,Increment      1: Step Time =,    10.00,"TUBE-1",         14927,  -3.50742E-03,  -3.56342E-03,       1.13750,NA,NA,"",   5.00000E-03,            0.,       1.13750,            0.,            0.
C:/ALETube/PressureUpdate/LargeStep/DeformErode/JobErode.odb,Step-1,Increment      1: Step Time =,    10.00,"TUBE-1",         14986,  -2.92791E-03,  -4.05307E-03,       1.13750,NA,NA,"",   5.00000E-03,            0.,       1.13750,            0.,            0.
C:/ALETube/PressureUpdate/LargeStep/DeformErode/JobErode.odb,Step-1,Increment      1: Step Time =,    10.00,"TUBE-1",         15150,  -2.92791E-03,  -4.05307E-03,       1.15000,NA,NA,"",   5.00000E-03,            0.,       1.15000,            0.,            0.
C:/ALETube/PressureUpdate/LargeStep/DeformErode/JobErode.odb,Step-1,Increment      1: Step Time =,    10.00,"TUBE-1",         15091,  -3.50742E-03,  -3.56342E-03,       1.15000,NA,NA,"",   5.00000E-03,            0.,       1.15000,            0.,            0.
C:/ALETube/PressureUpdate/LargeStep/DeformErode/JobErode.odb,Step-1,Increment      1: Step Time =,    10.00,"TUBE-1",         15314,  -2.92791E-03,  -4.05307E-03,       1.16250,NA,NA,"",   5.00000E-03,            0.,       1.16250,            0.,            0.
C:/ALETube/PressureUpdate/LargeStep/DeformErode/JobErode.odb,Step-1,Increment      1: Step Time =,    10.00,"TUBE-1",         15255,  -3.50742E-03,  -3.56342E-03,       1.16250,NA,NA,"",   5.00000E-03,            0.,       1.16250,            0.,            0.
C:/ALETube/PressureUpdate/LargeStep/DeformErode/JobErode.odb,Step-1,Increment      1: Step Time =,    10.00,"TUBE-1",         15478,  -2.92791E-03,  -4.05307E-03,       1.17500,NA,NA,"",   5.00000E-03,            0.,       1.17500,            0.,            0.
C:/ALETube/PressureUpdate/LargeStep/DeformErode/JobErode.odb,Step-1,Increment      1: Step Time =,    10.00,"TUBE-1",         15419,  -3.50742E-03,  -3.56342E-03,       1.17500,NA,NA,"",   5.00000E-03,            0.,       1.17500,            0.,            0.
C:/ALETube/PressureUpdate/LargeStep/DeformErode/JobErode.odb,Step-1,Increment      1: Step Time =,    10.00,"TUBE-1",         15642,  -2.92791E-03,  -4.05307E-03,        1.1875,NA,NA,"",   5.00000E-03,            0.,        1.1875,            0.,            0.
C:/ALETube/PressureUpdate/LargeStep/DeformErode/JobErode.odb,Step-1,Increment      1: Step Time =,    10.00,"TUBE-1",         15583,  -3.50742E-03,  -3.56342E-03,        1.1875,NA,NA,"",   5.00000E-03,            0.,        1.1875,            0.,            0.
C:/ALETube/PressureUpdate/LargeStep/DeformErode/JobErode.odb,Step-1,Increment      1: Step Time =,    10.00,"TUBE-1",         15747,  -3.50742E-03,  -3.56342E-03,       1.20000,NA,NA,"",   5.00000E-03,            0.,       1.20000,            0.,            0.
C:/ALETube/PressureUpdate/LargeStep/DeformErode/JobErode.odb,Step-1,Increment      1: Step Time =,    10.00,"TUBE-1",         15806,  -2.92791E-03,  -4.05307E-03,       1.20000,NA,NA,"",   5.00000E-03,            0.,       1.20000,            0.,            0.
C:/ALETube/PressureUpdate/LargeStep/DeformErode/JobErode.odb,Step-1,Increment      1: Step Time =,    10.00,"TUBE-1",         15970,  -2.92791E-03,  -4.05307E-03,       1.21250,NA,NA,"",   5.00000E-03,            0.,       1.21250,            0.,            0.
C:/ALETube/PressureUpdate/LargeStep/DeformErode/JobErode.odb,Step-1,Increment      1: Step Time =,    10.00,"TUBE-1",         15911,  -3.50742E-03,  -3.56342E-03,       1.21250,NA,NA,"",   5.00000E-03,            0.,       1.21250,            0.,            0.
C:/ALETube/PressureUpdate/LargeStep/DeformErode/JobErode.odb,Step-1,Increment      1: Step Time =,    10.00,"TUBE-1",         16134,  -2.92791E-03,  -4.05307E-03,       1.22500,NA,NA,"",   5.00000E-03,            0.,       1.22500,            0.,            0.
C:/ALETube/PressureUpdate/LargeStep/DeformErode/JobErode.odb,Step-1,Increment      1: Step Time =,    10.00,"TUBE-1",         16075,  -3.50742E-03,  -3.56342E-03,       1.22500,NA,NA,"",   5.00000E-03,            0.,       1.22500,            0.,            0.
C:/ALETube/PressureUpdate/LargeStep/DeformErode/JobErode.odb,Step-1,Increment      1: Step Time =,    10.00,"TUBE-1",         16298,  -2.92791E-03,  -4.05307E-03,       1.23750,NA,NA,"",   5.00000E-03,            0.,       1.23750,            0.,            0.
C:/ALETube/PressureUpdate/LargeStep/DeformErode/JobErode.odb,Step-1,Increment      1: Step Time =,    10.00,"TUBE-1",         16239,  -3.50742E-03,  -3.56342E-03,       1.23750,NA,NA,"",   5.00000E-03,            0.,       1.23750,            0.,            0.
C:/ALETube/PressureUpdate/LargeStep/DeformErode/JobErode.odb,Step-1,Increment      1: Step Time =,    10.00,"TUBE-1",         16462,  -2.92791E-03,  -4.05307E-03,          1.25,NA,NA,"",   5.00000E-03,            0.,          1.25,            0.,            0.
C:/ALETube/PressureUpdate/LargeStep/DeformErode/JobErode.odb,Step-1,Increment      1: Step Time =,    10.00,"TUBE-1",         16403,  -3.50742E-03,  -3.56342E-03,          1.25,NA,NA,"",   5.00000E-03,            0.,          1.25,            0.,            0.
C:/ALETube/PressureUpdate/LargeStep/DeformErode/JobErode.odb,Step-1,Increment      1: Step Time =,    10.00,"TUBE-1",         16567,  -3.50742E-03,  -3.56342E-03,       1.26250,NA,NA,"",   5.00000E-03,            0.,       1.26250,            0.,            0.
C:/ALETube/PressureUpdate/LargeStep/DeformErode/JobErode.odb,Step-1,Increment      1: Step Time =,    10.00,"TUBE-1",         16626,  -2.92791E-03,  -4.05307E-03,       1.26250,NA,NA,"",   5.00000E-03,            0.,       1.26250,            0.,            0.
C:/ALETube/PressureUpdate/LargeStep/DeformErode/JobErode.odb,Step-1,Increment      1: Step Time =,    10.00,"TUBE-1",         16790,  -2.92791E-03,  -4.05307E-03,       1.27500,NA,NA,"",   5.00000E-03,            0.,       1.27500,            0.,            0.
C:/ALETube/PressureUpdate/LargeStep/DeformErode/JobErode.odb,Step-1,Increment      1: Step Time =,    10.00,"TUBE-1",         16731,  -3.50742E-03,  -3.56342E-03,       1.27500,NA,NA,"",   5.00000E-03,            0.,       1.27500,            0.,            0.
C:/ALETube/PressureUpdate/LargeStep/DeformErode/JobErode.odb,Step-1,Increment      1: Step Time =,    10.00,"TUBE-1",         16954,  -2.92791E-03,  -4.05307E-03,       1.28750,NA,NA,"",   5.00000E-03,            0.,       1.28750,            0.,            0.
C:/ALETube/PressureUpdate/LargeStep/DeformErode/JobErode.odb,Step-1,Increment      1: Step Time =,    10.00,"TUBE-1",         16895,  -3.50742E-03,  -3.56342E-03,       1.28750,NA,NA,"",   5.00000E-03,            0.,       1.28750,            0.,            0.
C:/ALETube/PressureUpdate/LargeStep/DeformErode/JobErode.odb,Step-1,Increment      1: Step Time =,    10.00,"TUBE-1",         17118,  -2.92791E-03,  -4.05307E-03,       1.30000,NA,NA,"",   5.00000E-03,            0.,       1.30000,            0.,            0.
C:/ALETube/PressureUpdate/LargeStep/DeformErode/JobErode.odb,Step-1,Increment      1: Step Time =,    10.00,"TUBE-1",         17059,  -3.50742E-03,  -3.56342E-03,       1.30000,NA,NA,"",   5.00000E-03,            0.,       1.30000,            0.,            0.
C:/ALETube/PressureUpdate/LargeStep/DeformErode/JobErode.odb,Step-1,Increment      1: Step Time =,    10.00,"TUBE-1",         17282,  -2.92791E-03,  -4.05307E-03,        1.3125,NA,NA,"",   5.00000E-03,            0.,        1.3125,            0.,            0.
C:/ALETube/PressureUpdate/LargeStep/DeformErode/JobErode.odb,Step-1,Increment      1: Step Time =,    10.00,"TUBE-1",         17223,  -3.50742E-03,  -3.56342E-03,        1.3125,NA,NA,"",   5.00000E-03,            0.,        1.3125,            0.,            0.
C:/ALETube/PressureUpdate/LargeStep/DeformErode/JobErode.odb,Step-1,Increment      1: Step Time =,    10.00,"TUBE-1",         17387,  -3.50742E-03,  -3.56342E-03,       1.32500,NA,NA,"",   5.00000E-03,            0.,       1.32500,            0.,            0.
C:/ALETube/PressureUpdate/LargeStep/DeformErode/JobErode.odb,Step-1,Increment      1: Step Time =,    10.00,"TUBE-1",         17446,  -2.92791E-03,  -4.05307E-03,       1.32500,NA,NA,"",   5.00000E-03,            0.,       1.32500,            0.,            0.
C:/ALETube/PressureUpdate/LargeStep/DeformErode/JobErode.odb,Step-1,Increment      1: Step Time =,    10.00,"TUBE-1",         17610,  -2.92791E-03,  -4.05307E-03,       1.33750,NA,NA,"",   5.00000E-03,            0.,       1.33750,            0.,            0.
C:/ALETube/PressureUpdate/LargeStep/DeformErode/JobErode.odb,Step-1,Increment      1: Step Time =,    10.00,"TUBE-1",         17551,  -3.50742E-03,  -3.56342E-03,       1.33750,NA,NA,"",   5.00000E-03,            0.,       1.33750,            0.,            0.
C:/ALETube/PressureUpdate/LargeStep/DeformErode/JobErode.odb,Step-1,Increment      1: Step Time =,    10.00,"TUBE-1",         17774,  -2.92791E-03,  -4.05307E-03,       1.35000,NA,NA,"",   5.00000E-03,            0.,       1.35000,            0.,            0.
C:/ALETube/PressureUpdate/LargeStep/DeformErode/JobErode.odb,Step-1,Increment      1: Step Time =,    10.00,"TUBE-1",         17715,  -3.50742E-03,  -3.56342E-03,       1.35000,NA,NA,"",   5.00000E-03,            0.,       1.35000,            0.,            0.
C:/ALETube/PressureUpdate/LargeStep/DeformErode/JobErode.odb,Step-1,Increment      1: Step Time =,    10.00,"TUBE-1",         17938,  -2.92791E-03,  -4.05307E-03,       1.36250,NA,NA,"",   5.00000E-03,            0.,       1.36250,            0.,            0.
C:/ALETube/PressureUpdate/LargeStep/DeformErode/JobErode.odb,Step-1,Increment      1: Step Time =,    10.00,"TUBE-1",         17879,  -3.50742E-03,  -3.56342E-03,       1.36250,NA,NA,"",   5.00000E-03,            0.,       1.36250,            0.,            0.
C:/ALETube/PressureUpdate/LargeStep/DeformErode/JobErode.odb,Step-1,Increment      1: Step Time =,    10.00,"TUBE-1",         18102,  -2.92791E-03,  -4.05307E-03,         1.375,NA,NA,"",   5.00000E-03,            0.,         1.375,            0.,            0.
C:/ALETube/PressureUpdate/LargeStep/DeformErode/JobErode.odb,Step-1,Increment      1: Step Time =,    10.00,"TUBE-1",         18043,  -3.50742E-03,  -3.56342E-03,         1.375,NA,NA,"",   5.00000E-03,            0.,         1.375,            0.,            0.
C:/ALETube/PressureUpdate/LargeStep/DeformErode/JobErode.odb,Step-1,Increment      1: Step Time =,    10.00,"TUBE-1",         18207,  -3.50742E-03,  -3.56342E-03,       1.38750,NA,NA,"",   5.00000E-03,            0.,       1.38750,            0.,            0.
C:/ALETube/PressureUpdate/LargeStep/DeformErode/JobErode.odb,Step-1,Increment      1: Step Time =,    10.00,"TUBE-1",         18266,  -2.92791E-03,  -4.05307E-03,       1.38750,NA,NA,"",   5.00000E-03,            0.,       1.38750,            0.,            0.
C:/ALETube/PressureUpdate/LargeStep/DeformErode/JobErode.odb,Step-1,Increment      1: Step Time =,    10.00,"TUBE-1",         18430,  -2.92791E-03,  -4.05307E-03,       1.40000,NA,NA,"",   5.00000E-03,            0.,       1.40000,            0.,            0.
C:/ALETube/PressureUpdate/LargeStep/DeformErode/JobErode.odb,Step-1,Increment      1: Step Time =,    10.00,"TUBE-1",         18371,  -3.50742E-03,  -3.56342E-03,       1.40000,NA,NA,"",   5.00000E-03,            0.,       1.40000,            0.,            0.
C:/ALETube/PressureUpdate/LargeStep/DeformErode/JobErode.odb,Step-1,Increment      1: Step Time =,    10.00,"TUBE-1",         18594,  -2.92791E-03,  -4.05307E-03,       1.41250,NA,NA,"",   5.00000E-03,            0.,       1.41250,            0.,            0.
C:/ALETube/PressureUpdate/LargeStep/DeformErode/JobErode.odb,Step-1,Increment      1: Step Time =,    10.00,"TUBE-1",         18535,  -3.50742E-03,  -3.56342E-03,       1.41250,NA,NA,"",   5.00000E-03,            0.,       1.41250,            0.,            0.
C:/ALETube/PressureUpdate/LargeStep/DeformErode/JobErode.odb,Step-1,Increment      1: Step Time =,    10.00,"TUBE-1",         18758,  -2.92791E-03,  -4.05307E-03,       1.42500,NA,NA,"",   5.00000E-03,            0.,       1.42500,            0.,            0.
C:/ALETube/PressureUpdate/LargeStep/DeformErode/JobErode.odb,Step-1,Increment      1: Step Time =,    10.00,"TUBE-1",         18699,  -3.50742E-03,  -3.56342E-03,       1.42500,NA,NA,"",   5.00000E-03,            0.,       1.42500,            0.,            0.
C:/ALETube/PressureUpdate/LargeStep/DeformErode/JobErode.odb,Step-1,Increment      1: Step Time =,    10.00,"TUBE-1",         18922,  -2.92791E-03,  -4.05307E-03,        1.4375,NA,NA,"",   5.00000E-03,            0.,        1.4375,            0.,            0.
C:/ALETube/PressureUpdate/LargeStep/DeformErode/JobErode.odb,Step-1,Increment      1: Step Time =,    10.00,"TUBE-1",         18863,  -3.50742E-03,  -3.56342E-03,        1.4375,NA,NA,"",   5.00000E-03,            0.,        1.4375,            0.,            0.
C:/ALETube/PressureUpdate/LargeStep/DeformErode/JobErode.odb,Step-1,Increment      1: Step Time =,    10.00,"TUBE-1",         19027,  -3.50742E-03,  -3.56342E-03,       1.45000,NA,NA,"",   5.00000E-03,            0.,       1.45000,            0.,            0.
C:/ALETube/PressureUpdate/LargeStep/DeformErode/JobErode.odb,Step-1,Increment      1: Step Time =,    10.00,"TUBE-1",         19086,  -2.92791E-03,  -4.05307E-03,       1.45000,NA,NA,"",   5.00000E-03,            0.,       1.45000,            0.,            0.
C:/ALETube/PressureUpdate/LargeStep/DeformErode/JobErode.odb,Step-1,Increment      1: Step Time =,    10.00,"TUBE-1",         19250,  -2.92791E-03,  -4.05307E-03,       1.46250,NA,NA,"",   5.00000E-03,            0.,       1.46250,            0.,            0.
C:/ALETube/PressureUpdate/LargeStep/DeformErode/JobErode.odb,Step-1,Increment      1: Step Time =,    10.00,"TUBE-1",         19191,  -3.50742E-03,  -3.56342E-03,       1.46250,NA,NA,"",   5.00000E-03,            0.,       1.46250,            0.,            0.
C:/ALETube/PressureUpdate/LargeStep/DeformErode/JobErode.odb,Step-1,Increment      1: Step Time =,    10.00,"TUBE-1",         19414,  -2.92791E-03,  -4.05307E-03,       1.47500,NA,NA,"",   5.00000E-03,            0.,       1.47500,            0.,            0.
C:/ALETube/PressureUpdate/LargeStep/DeformErode/JobErode.odb,Step-1,Increment      1: Step Time =,    10.00,"TUBE-1",         19355,  -3.50742E-03,  -3.56342E-03,       1.47500,NA,NA,"",   5.00000E-03,            0.,       1.47500,            0.,            0.
C:/ALETube/PressureUpdate/LargeStep/DeformErode/JobErode.odb,Step-1,Increment      1: Step Time =,    10.00,"TUBE-1",         19578,  -2.92791E-03,  -4.05307E-03,       1.48750,NA,NA,"",   5.00000E-03,            0.,       1.48750,            0.,            0.
C:/ALETube/PressureUpdate/LargeStep/DeformErode/JobErode.odb,Step-1,Increment      1: Step Time =,    10.00,"TUBE-1",         19519,  -3.50742E-03,  -3.56342E-03,       1.48750,NA,NA,"",   5.00000E-03,            0.,       1.48750,            0.,            0.
C:/ALETube/PressureUpdate/LargeStep/DeformErode/JobErode.odb,Step-1,Increment      1: Step Time =,    10.00,"TUBE-1",         19742,  -2.92791E-03,  -4.05307E-03,           1.5,NA,NA,"",   5.00000E-03,            0.,           1.5,            0.,            0.
C:/ALETube/PressureUpdate/LargeStep/DeformErode/JobErode.odb,Step-1,Increment      1: Step Time =,    10.00,"TUBE-1",         19683,  -3.50742E-03,  -3.56342E-03,           1.5,NA,NA,"",   5.00000E-03,            0.,           1.5,            0.,            0.
C:/ALETube/PressureUpdate/LargeStep/DeformErode/JobErode.odb,Step-1,Increment      1: Step Time =,    10.00,"TUBE-1",         19847,  -3.50742E-03,  -3.56342E-03,       1.51250,NA,NA,"",   5.00000E-03,            0.,       1.51250,            0.,            0.
C:/ALETube/PressureUpdate/LargeStep/DeformErode/JobErode.odb,Step-1,Increment      1: Step Time =,    10.00,"TUBE-1",         19906,  -2.92791E-03,  -4.05307E-03,       1.51250,NA,NA,"",   5.00000E-03,            0.,       1.51250,            0.,            0.
C:/ALETube/PressureUpdate/LargeStep/DeformErode/JobErode.odb,Step-1,Increment      1: Step Time =,    10.00,"TUBE-1",         20070,  -2.92791E-03,  -4.05307E-03,       1.52500,NA,NA,"",   5.00000E-03,            0.,       1.52500,            0.,            0.
C:/ALETube/PressureUpdate/LargeStep/DeformErode/JobErode.odb,Step-1,Increment      1: Step Time =,    10.00,"TUBE-1",         20011,  -3.50742E-03,  -3.56342E-03,       1.52500,NA,NA,"",   5.00000E-03,            0.,       1.52500,            0.,            0.
C:/ALETube/PressureUpdate/LargeStep/DeformErode/JobErode.odb,Step-1,Increment      1: Step Time =,    10.00,"TUBE-1",         20234,  -2.92791E-03,  -4.05307E-03,       1.53750,NA,NA,"",   5.00000E-03,            0.,       1.53750,            0.,            0.
C:/ALETube/PressureUpdate/LargeStep/DeformErode/JobErode.odb,Step-1,Increment      1: Step Time =,    10.00,"TUBE-1",         20175,  -3.50742E-03,  -3.56342E-03,       1.53750,NA,NA,"",   5.00000E-03,            0.,       1.53750,            0.,            0.
C:/ALETube/PressureUpdate/LargeStep/DeformErode/JobErode.odb,Step-1,Increment      1: Step Time =,    10.00,"TUBE-1",         20398,  -2.92791E-03,  -4.05307E-03,       1.55000,NA,NA,"",   5.00000E-03,            0.,       1.55000,            0.,            0.
C:/ALETube/PressureUpdate/LargeStep/DeformErode/JobErode.odb,Step-1,Increment      1: Step Time =,    10.00,"TUBE-1",         20339,  -3.50742E-03,  -3.56342E-03,       1.55000,NA,NA,"",   5.00000E-03,            0.,       1.55000,            0.,            0.
C:/ALETube/PressureUpdate/LargeStep/DeformErode/JobErode.odb,Step-1,Increment      1: Step Time =,    10.00,"TUBE-1",         20562,  -2.92791E-03,  -4.05307E-03,        1.5625,NA,NA,"",   5.00000E-03,            0.,        1.5625,            0.,            0.
C:/ALETube/PressureUpdate/LargeStep/DeformErode/JobErode.odb,Step-1,Increment      1: Step Time =,    10.00,"TUBE-1",         20503,  -3.50742E-03,  -3.56342E-03,        1.5625,NA,NA,"",   5.00000E-03,            0.,        1.5625,            0.,            0.
C:/ALETube/PressureUpdate/LargeStep/DeformErode/JobErode.odb,Step-1,Increment      1: Step Time =,    10.00,"TUBE-1",         20667,  -3.50742E-03,  -3.56342E-03,       1.57500,NA,NA,"",   5.00000E-03,            0.,       1.57500,            0.,            0.
C:/ALETube/PressureUpdate/LargeStep/DeformErode/JobErode.odb,Step-1,Increment      1: Step Time =,    10.00,"TUBE-1",         20726,  -2.92791E-03,  -4.05307E-03,       1.57500,NA,NA,"",   5.00000E-03,            0.,       1.57500,            0.,            0.
C:/ALETube/PressureUpdate/LargeStep/DeformErode/JobErode.odb,Step-1,Increment      1: Step Time =,    10.00,"TUBE-1",         20890,  -2.92791E-03,  -4.05307E-03,       1.58750,NA,NA,"",   5.00000E-03,            0.,       1.58750,            0.,            0.
C:/ALETube/PressureUpdate/LargeStep/DeformErode/JobErode.odb,Step-1,Increment      1: Step Time =,    10.00,"TUBE-1",         20831,  -3.50742E-03,  -3.56342E-03,       1.58750,NA,NA,"",   5.00000E-03,            0.,       1.58750,            0.,            0.
C:/ALETube/PressureUpdate/LargeStep/DeformErode/JobErode.odb,Step-1,Increment      1: Step Time =,    10.00,"TUBE-1",         21054,  -2.92791E-03,  -4.05307E-03,       1.60000,NA,NA,"",   5.00000E-03,            0.,       1.60000,            0.,            0.
C:/ALETube/PressureUpdate/LargeStep/DeformErode/JobErode.odb,Step-1,Increment      1: Step Time =,    10.00,"TUBE-1",         20995,  -3.50742E-03,  -3.56342E-03,       1.60000,NA,NA,"",   5.00000E-03,            0.,       1.60000,            0.,            0.
C:/ALETube/PressureUpdate/LargeStep/DeformErode/JobErode.odb,Step-1,Increment      1: Step Time =,    10.00,"TUBE-1",         21218,  -2.92791E-03,  -4.05307E-03,       1.61250,NA,NA,"",   5.00000E-03,            0.,       1.61250,            0.,            0.
C:/ALETube/PressureUpdate/LargeStep/DeformErode/JobErode.odb,Step-1,Increment      1: Step Time =,    10.00,"TUBE-1",         21159,  -3.50742E-03,  -3.56342E-03,       1.61250,NA,NA,"",   5.00000E-03,            0.,       1.61250,            0.,            0.
C:/ALETube/PressureUpdate/LargeStep/DeformErode/JobErode.odb,Step-1,Increment      1: Step Time =,    10.00,"TUBE-1",         21382,  -2.92791E-03,  -4.05307E-03,         1.625,NA,NA,"",   5.00000E-03,            0.,         1.625,            0.,            0.
C:/ALETube/PressureUpdate/LargeStep/DeformErode/JobErode.odb,Step-1,Increment      1: Step Time =,    10.00,"TUBE-1",         21323,  -3.50742E-03,  -3.56342E-03,         1.625,NA,NA,"",   5.00000E-03,            0.,         1.625,            0.,            0.
C:/ALETube/PressureUpdate/LargeStep/DeformErode/JobErode.odb,Step-1,Increment      1: Step Time =,    10.00,"TUBE-1",         21487,  -3.50742E-03,  -3.56342E-03,       1.63750,NA,NA,"",   5.00000E-03,            0.,       1.63750,            0.,            0.
C:/ALETube/PressureUpdate/LargeStep/DeformErode/JobErode.odb,Step-1,Increment      1: Step Time =,    10.00,"TUBE-1",         21546,  -2.92791E-03,  -4.05307E-03,       1.63750,NA,NA,"",   5.00000E-03,            0.,       1.63750,            0.,            0.
C:/ALETube/PressureUpdate/LargeStep/DeformErode/JobErode.odb,Step-1,Increment      1: Step Time =,    10.00,"TUBE-1",         21710,  -2.92791E-03,  -4.05307E-03,       1.65000,NA,NA,"",   5.00000E-03,            0.,       1.65000,            0.,            0.
C:/ALETube/PressureUpdate/LargeStep/DeformErode/JobErode.odb,Step-1,Increment      1: Step Time =,    10.00,"TUBE-1",         21651,  -3.50742E-03,  -3.56342E-03,       1.65000,NA,NA,"",   5.00000E-03,            0.,       1.65000,            0.,            0.
C:/ALETube/PressureUpdate/LargeStep/DeformErode/JobErode.odb,Step-1,Increment      1: Step Time =,    10.00,"TUBE-1",         21874,  -2.92791E-03,  -4.05307E-03,       1.66250,NA,NA,"",   5.00000E-03,            0.,       1.66250,            0.,            0.
C:/ALETube/PressureUpdate/LargeStep/DeformErode/JobErode.odb,Step-1,Increment      1: Step Time =,    10.00,"TUBE-1",         21815,  -3.50742E-03,  -3.56342E-03,       1.66250,NA,NA,"",   5.00000E-03,            0.,       1.66250,            0.,            0.
C:/ALETube/PressureUpdate/LargeStep/DeformErode/JobErode.odb,Step-1,Increment      1: Step Time =,    10.00,"TUBE-1",         22038,  -2.92791E-03,  -4.05307E-03,       1.67500,NA,NA,"",   5.00000E-03,            0.,       1.67500,            0.,            0.
C:/ALETube/PressureUpdate/LargeStep/DeformErode/JobErode.odb,Step-1,Increment      1: Step Time =,    10.00,"TUBE-1",         21979,  -3.50742E-03,  -3.56342E-03,       1.67500,NA,NA,"",   5.00000E-03,            0.,       1.67500,            0.,            0.
C:/ALETube/PressureUpdate/LargeStep/DeformErode/JobErode.odb,Step-1,Increment      1: Step Time =,    10.00,"TUBE-1",         22202,  -2.92791E-03,  -4.05307E-03,        1.6875,NA,NA,"",   5.00000E-03,            0.,        1.6875,            0.,            0.
C:/ALETube/PressureUpdate/LargeStep/DeformErode/JobErode.odb,Step-1,Increment      1: Step Time =,    10.00,"TUBE-1",         22143,  -3.50742E-03,  -3.56342E-03,        1.6875,NA,NA,"",   5.00000E-03,            0.,        1.6875,            0.,            0.
C:/ALETube/PressureUpdate/LargeStep/DeformErode/JobErode.odb,Step-1,Increment      1: Step Time =,    10.00,"TUBE-1",         22307,  -3.50742E-03,  -3.56342E-03,       1.70000,NA,NA,"",   5.00000E-03,            0.,       1.70000,            0.,            0.
C:/ALETube/PressureUpdate/LargeStep/DeformErode/JobErode.odb,Step-1,Increment      1: Step Time =,    10.00,"TUBE-1",         22366,  -2.92791E-03,  -4.05307E-03,       1.70000,NA,NA,"",   5.00000E-03,            0.,       1.70000,            0.,            0.
C:/ALETube/PressureUpdate/LargeStep/DeformErode/JobErode.odb,Step-1,Increment      1: Step Time =,    10.00,"TUBE-1",         22530,  -2.92791E-03,  -4.05307E-03,       1.71250,NA,NA,"",   5.00000E-03,            0.,       1.71250,            0.,            0.
C:/ALETube/PressureUpdate/LargeStep/DeformErode/JobErode.odb,Step-1,Increment      1: Step Time =,    10.00,"TUBE-1",         22471,  -3.50742E-03,  -3.56342E-03,       1.71250,NA,NA,"",   5.00000E-03,            0.,       1.71250,            0.,            0.
C:/ALETube/PressureUpdate/LargeStep/DeformErode/JobErode.odb,Step-1,Increment      1: Step Time =,    10.00,"TUBE-1",         22694,  -2.92791E-03,  -4.05307E-03,       1.72500,NA,NA,"",   5.00000E-03,            0.,       1.72500,            0.,            0.
C:/ALETube/PressureUpdate/LargeStep/DeformErode/JobErode.odb,Step-1,Increment      1: Step Time =,    10.00,"TUBE-1",         22635,  -3.50742E-03,  -3.56342E-03,       1.72500,NA,NA,"",   5.00000E-03,            0.,       1.72500,            0.,            0.
C:/ALETube/PressureUpdate/LargeStep/DeformErode/JobErode.odb,Step-1,Increment      1: Step Time =,    10.00,"TUBE-1",         22858,  -2.92791E-03,  -4.05307E-03,       1.73750,NA,NA,"",   5.00000E-03,            0.,       1.73750,            0.,            0.
C:/ALETube/PressureUpdate/LargeStep/DeformErode/JobErode.odb,Step-1,Increment      1: Step Time =,    10.00,"TUBE-1",         22799,  -3.50742E-03,  -3.56342E-03,       1.73750,NA,NA,"",   5.00000E-03,            0.,       1.73750,            0.,            0.
C:/ALETube/PressureUpdate/LargeStep/DeformErode/JobErode.odb,Step-1,Increment      1: Step Time =,    10.00,"TUBE-1",         23022,  -2.92791E-03,  -4.05307E-03,          1.75,NA,NA,"",   5.00000E-03,            0.,          1.75,            0.,            0.
C:/ALETube/PressureUpdate/LargeStep/DeformErode/JobErode.odb,Step-1,Increment      1: Step Time =,    10.00,"TUBE-1",         22963,  -3.50742E-03,  -3.56342E-03,          1.75,NA,NA,"",   5.00000E-03,            0.,          1.75,            0.,            0.
C:/ALETube/PressureUpdate/LargeStep/DeformErode/JobErode.odb,Step-1,Increment      1: Step Time =,    10.00,"TUBE-1",         23127,  -3.50742E-03,  -3.56342E-03,       1.76250,NA,NA,"",   5.00000E-03,            0.,       1.76250,            0.,            0.
C:/ALETube/PressureUpdate/LargeStep/DeformErode/JobErode.odb,Step-1,Increment      1: Step Time =,    10.00,"TUBE-1",         23186,  -2.92791E-03,  -4.05307E-03,       1.76250,NA,NA,"",   5.00000E-03,            0.,       1.76250,            0.,            0.
C:/ALETube/PressureUpdate/LargeStep/DeformErode/JobErode.odb,Step-1,Increment      1: Step Time =,    10.00,"TUBE-1",         23350,  -2.92791E-03,  -4.05307E-03,       1.77500,NA,NA,"",   5.00000E-03,            0.,       1.77500,            0.,            0.
C:/ALETube/PressureUpdate/LargeStep/DeformErode/JobErode.odb,Step-1,Increment      1: Step Time =,    10.00,"TUBE-1",         23291,  -3.50742E-03,  -3.56342E-03,       1.77500,NA,NA,"",   5.00000E-03,            0.,       1.77500,            0.,            0.
C:/ALETube/PressureUpdate/LargeStep/DeformErode/JobErode.odb,Step-1,Increment      1: Step Time =,    10.00,"TUBE-1",         23514,  -2.92791E-03,  -4.05307E-03,       1.78750,NA,NA,"",   5.00000E-03,            0.,       1.78750,            0.,            0.
C:/ALETube/PressureUpdate/LargeStep/DeformErode/JobErode.odb,Step-1,Increment      1: Step Time =,    10.00,"TUBE-1",         23455,  -3.50742E-03,  -3.56342E-03,       1.78750,NA,NA,"",   5.00000E-03,            0.,       1.78750,            0.,            0.
C:/ALETube/PressureUpdate/LargeStep/DeformErode/JobErode.odb,Step-1,Increment      1: Step Time =,    10.00,"TUBE-1",         23678,  -2.92791E-03,  -4.05307E-03,       1.80000,NA,NA,"",   5.00000E-03,            0.,       1.80000,            0.,            0.
C:/ALETube/PressureUpdate/LargeStep/DeformErode/JobErode.odb,Step-1,Increment      1: Step Time =,    10.00,"TUBE-1",         23619,  -3.50742E-03,  -3.56342E-03,       1.80000,NA,NA,"",   5.00000E-03,            0.,       1.80000,            0.,            0.
C:/ALETube/PressureUpdate/LargeStep/DeformErode/JobErode.odb,Step-1,Increment      1: Step Time =,    10.00,"TUBE-1",         23842,  -2.92791E-03,  -4.05307E-03,        1.8125,NA,NA,"",   5.00000E-03,            0.,        1.8125,            0.,            0.
C:/ALETube/PressureUpdate/LargeStep/DeformErode/JobErode.odb,Step-1,Increment      1: Step Time =,    10.00,"TUBE-1",         23783,  -3.50742E-03,  -3.56342E-03,        1.8125,NA,NA,"",   5.00000E-03,            0.,        1.8125,            0.,            0.
C:/ALETube/PressureUpdate/LargeStep/DeformErode/JobErode.odb,Step-1,Increment      1: Step Time =,    10.00,"TUBE-1",         23947,  -3.50742E-03,  -3.56342E-03,       1.82500,NA,NA,"",   5.00000E-03,            0.,       1.82500,            0.,            0.
C:/ALETube/PressureUpdate/LargeStep/DeformErode/JobErode.odb,Step-1,Increment      1: Step Time =,    10.00,"TUBE-1",         24006,  -2.92791E-03,  -4.05307E-03,       1.82500,NA,NA,"",   5.00000E-03,            0.,       1.82500,            0.,            0.
C:/ALETube/PressureUpdate/LargeStep/DeformErode/JobErode.odb,Step-1,Increment      1: Step Time =,    10.00,"TUBE-1",         24170,  -2.92791E-03,  -4.05307E-03,       1.83750,NA,NA,"",   5.00000E-03,            0.,       1.83750,            0.,            0.
C:/ALETube/PressureUpdate/LargeStep/DeformErode/JobErode.odb,Step-1,Increment      1: Step Time =,    10.00,"TUBE-1",         24111,  -3.50742E-03,  -3.56342E-03,       1.83750,NA,NA,"",   5.00000E-03,            0.,       1.83750,            0.,            0.
C:/ALETube/PressureUpdate/LargeStep/DeformErode/JobErode.odb,Step-1,Increment      1: Step Time =,    10.00,"TUBE-1",         24334,  -2.92791E-03,  -4.05307E-03,       1.85000,NA,NA,"",   5.00000E-03,            0.,       1.85000,            0.,            0.
C:/ALETube/PressureUpdate/LargeStep/DeformErode/JobErode.odb,Step-1,Increment      1: Step Time =,    10.00,"TUBE-1",         24275,  -3.50742E-03,  -3.56342E-03,       1.85000,NA,NA,"",   5.00000E-03,            0.,       1.85000,            0.,            0.
C:/ALETube/PressureUpdate/LargeStep/DeformErode/JobErode.odb,Step-1,Increment      1: Step Time =,    10.00,"TUBE-1",         24498,  -2.92791E-03,  -4.05307E-03,       1.86250,NA,NA,"",   5.00000E-03,            0.,       1.86250,            0.,            0.
C:/ALETube/PressureUpdate/LargeStep/DeformErode/JobErode.odb,Step-1,Increment      1: Step Time =,    10.00,"TUBE-1",         24439,  -3.50742E-03,  -3.56342E-03,       1.86250,NA,NA,"",   5.00000E-03,            0.,       1.86250,            0.,            0.
C:/ALETube/PressureUpdate/LargeStep/DeformErode/JobErode.odb,Step-1,Increment      1: Step Time =,    10.00,"TUBE-1",         24662,  -2.92791E-03,  -4.05307E-03,         1.875,NA,NA,"",   5.00000E-03,            0.,         1.875,            0.,            0.
C:/ALETube/PressureUpdate/LargeStep/DeformErode/JobErode.odb,Step-1,Increment      1: Step Time =,    10.00,"TUBE-1",         24603,  -3.50742E-03,  -3.56342E-03,         1.875,NA,NA,"",   5.00000E-03,            0.,         1.875,            0.,            0.
C:/ALETube/PressureUpdate/LargeStep/DeformErode/JobErode.odb,Step-1,Increment      1: Step Time =,    10.00,"TUBE-1",         24767,  -3.50742E-03,  -3.56342E-03,       1.88750,NA,NA,"",   5.00000E-03,            0.,       1.88750,            0.,            0.
C:/ALETube/PressureUpdate/LargeStep/DeformErode/JobErode.odb,Step-1,Increment      1: Step Time =,    10.00,"TUBE-1",         24826,  -2.92791E-03,  -4.05307E-03,       1.88750,NA,NA,"",   5.00000E-03,            0.,       1.88750,            0.,            0.
C:/ALETube/PressureUpdate/LargeStep/DeformErode/JobErode.odb,Step-1,Increment      1: Step Time =,    10.00,"TUBE-1",         24990,  -2.92791E-03,  -4.05307E-03,       1.90000,NA,NA,"",   5.00000E-03,            0.,       1.90000,            0.,            0.
C:/ALETube/PressureUpdate/LargeStep/DeformErode/JobErode.odb,Step-1,Increment      1: Step Time =,    10.00,"TUBE-1",         24931,  -3.50742E-03,  -3.56342E-03,       1.90000,NA,NA,"",   5.00000E-03,            0.,       1.90000,            0.,            0.
C:/ALETube/PressureUpdate/LargeStep/DeformErode/JobErode.odb,Step-1,Increment      1: Step Time =,    10.00,"TUBE-1",         25154,  -2.92791E-03,  -4.05307E-03,       1.91250,NA,NA,"",   5.00000E-03,            0.,       1.91250,            0.,            0.
C:/ALETube/PressureUpdate/LargeStep/DeformErode/JobErode.odb,Step-1,Increment      1: Step Time =,    10.00,"TUBE-1",         25095,  -3.50742E-03,  -3.56342E-03,       1.91250,NA,NA,"",   5.00000E-03,            0.,       1.91250,            0.,            0.
C:/ALETube/PressureUpdate/LargeStep/DeformErode/JobErode.odb,Step-1,Increment      1: Step Time =,    10.00,"TUBE-1",         25318,  -2.92791E-03,  -4.05307E-03,       1.92500,NA,NA,"",   5.00000E-03,            0.,       1.92500,            0.,            0.
C:/ALETube/PressureUpdate/LargeStep/DeformErode/JobErode.odb,Step-1,Increment      1: Step Time =,    10.00,"TUBE-1",         25259,  -3.50742E-03,  -3.56342E-03,       1.92500,NA,NA,"",   5.00000E-03,            0.,       1.92500,            0.,            0.
C:/ALETube/PressureUpdate/LargeStep/DeformErode/JobErode.odb,Step-1,Increment      1: Step Time =,    10.00,"TUBE-1",         25482,  -2.92791E-03,  -4.05307E-03,        1.9375,NA,NA,"",   5.00000E-03,            0.,        1.9375,            0.,            0.
C:/ALETube/PressureUpdate/LargeStep/DeformErode/JobErode.odb,Step-1,Increment      1: Step Time =,    10.00,"TUBE-1",         25423,  -3.50742E-03,  -3.56342E-03,        1.9375,NA,NA,"",   5.00000E-03,            0.,        1.9375,            0.,            0.
C:/ALETube/PressureUpdate/LargeStep/DeformErode/JobErode.odb,Step-1,Increment      1: Step Time =,    10.00,"TUBE-1",         25587,  -3.50742E-03,  -3.56342E-03,       1.95000,NA,NA,"",   5.00000E-03,            0.,       1.95000,            0.,            0.
C:/ALETube/PressureUpdate/LargeStep/DeformErode/JobErode.odb,Step-1,Increment      1: Step Time =,    10.00,"TUBE-1",         25646,  -2.92791E-03,  -4.05307E-03,       1.95000,NA,NA,"",   5.00000E-03,            0.,       1.95000,            0.,            0.
C:/ALETube/PressureUpdate/LargeStep/DeformErode/JobErode.odb,Step-1,Increment      1: Step Time =,    10.00,"TUBE-1",         25810,  -2.92791E-03,  -4.05307E-03,       1.96250,NA,NA,"",   5.00000E-03,            0.,       1.96250,            0.,            0.
C:/ALETube/PressureUpdate/LargeStep/DeformErode/JobErode.odb,Step-1,Increment      1: Step Time =,    10.00,"TUBE-1",         25751,  -3.50742E-03,  -3.56342E-03,       1.96250,NA,NA,"",   5.00000E-03,            0.,       1.96250,            0.,            0.
C:/ALETube/PressureUpdate/LargeStep/DeformErode/JobErode.odb,Step-1,Increment      1: Step Time =,    10.00,"TUBE-1",         25974,  -2.92791E-03,  -4.05307E-03,       1.97500,NA,NA,"",   5.00000E-03,            0.,       1.97500,            0.,            0.
C:/ALETube/PressureUpdate/LargeStep/DeformErode/JobErode.odb,Step-1,Increment      1: Step Time =,    10.00,"TUBE-1",         25915,  -3.50742E-03,  -3.56342E-03,       1.97500,NA,NA,"",   5.00000E-03,            0.,       1.97500,            0.,            0.
C:/ALETube/PressureUpdate/LargeStep/DeformErode/JobErode.odb,Step-1,Increment      1: Step Time =,    10.00,"TUBE-1",         26138,  -2.92791E-03,  -4.05307E-03,       1.98750,NA,NA,"",   5.00000E-03,            0.,       1.98750,            0.,            0.
C:/ALETube/PressureUpdate/LargeStep/DeformErode/JobErode.odb,Step-1,Increment      1: Step Time =,    10.00,"TUBE-1",         26079,  -3.50742E-03,  -3.56342E-03,       1.98750,NA,NA,"",   5.00000E-03,            0.,       1.98750,            0.,            0.
C:/ALETube/PressureUpdate/LargeStep/DeformErode/JobErode.odb,Step-1,Increment      1: Step Time =,    10.00,"TUBE-1",         26302,  -2.92791E-03,  -4.05307E-03,            2.,NA,NA,"",   5.00000E-03,            0.,            2.,            0.,            0.
C:/ALETube/PressureUpdate/LargeStep/DeformErode/JobErode.odb,Step-1,Increment      1: Step Time =,    10.00,"TUBE-1",         26243,  -3.50742E-03,  -3.56342E-03,            2.,NA,NA,"",   5.00000E-03,            0.,            2.,            0.,            0.
C:/ALETube/PressureUpdate/LargeStep/DeformErode/JobErode.odb,Step-1,Increment      2: Step Time =,    20.00,"TUBE-1",            62,  -2.92791E-03,  -4.05307E-03,            0.,NA,NA,"",   5.00000E-03,   433.681E-21,   9.37307E-21,  -2.52523E-09,   85.6277E-12
C:/ALETube/PressureUpdate/LargeStep/DeformErode/JobErode.odb,Step-1,Increment      2: Step Time =,    20.00,"TUBE-1",             3,  -3.50742E-03,  -3.56342E-03,            0.,NA,NA,"",   4.99999E-03,            0.,   16.8343E-21,  -10.7762E-09,   286.636E-12
C:/ALETube/PressureUpdate/LargeStep/DeformErode/JobErode.odb,Step-1,Increment      2: Step Time =,    20.00,"TUBE-1",           226,  -2.92791E-03,  -4.05307E-03,   12.5000E-03,NA,NA,"",   5.00000E-03,            0.,   12.5000E-03,  -3.30481E-09,   155.256E-12
C:/ALETube/PressureUpdate/LargeStep/DeformErode/JobErode.odb,Step-1,Increment      2: Step Time =,    20.00,"TUBE-1",           167,  -3.50742E-03,  -3.56342E-03,   12.5000E-03,NA,NA,"",   4.99998E-03,            0.,   12.5000E-03,  -16.5486E-09,   129.118E-12
C:/ALETube/PressureUpdate/LargeStep/DeformErode/JobErode.odb,Step-1,Increment      2: Step Time =,    20.00,"TUBE-1",           331,  -3.50742E-03,  -3.56342E-03,   25.0000E-03,NA,NA,"",   4.99998E-03,            0.,   25.0000E-03,  -16.5486E-09,   297.207E-12
C:/ALETube/PressureUpdate/LargeStep/DeformErode/JobErode.odb,Step-1,Increment      2: Step Time =,    20.00,"TUBE-1",           390,  -2.92791E-03,  -4.05307E-03,   25.0000E-03,NA,NA,"",   5.00000E-03,            0.,   25.0000E-03,  -3.30481E-09,   337.415E-12
C:/ALETube/PressureUpdate/LargeStep/DeformErode/JobErode.odb,Step-1,Increment      2: Step Time =,    20.00,"TUBE-1",           554,  -2.92791E-03,  -4.05307E-03,   37.5000E-03,NA,NA,"",   5.00000E-03,            0.,   37.5000E-03,  -3.30481E-09,   134.833E-12
C:/ALETube/PressureUpdate/LargeStep/DeformErode/JobErode.odb,Step-1,Increment      2: Step Time =,    20.00,"TUBE-1",           495,  -3.50742E-03,  -3.56342E-03,   37.5000E-03,NA,NA,"",   4.99998E-03,            0.,   37.5000E-03,  -16.5486E-09,   239.495E-12
C:/ALETube/PressureUpdate/LargeStep/DeformErode/JobErode.odb,Step-1,Increment      2: Step Time =,    20.00,"TUBE-1",           718,  -2.92791E-03,  -4.05307E-03,   50.0000E-03,NA,NA,"",   5.00000E-03,            0.,   50.0000E-03,  -3.30481E-09,   218.402E-12
C:/ALETube/PressureUpdate/LargeStep/DeformErode/JobErode.odb,Step-1,Increment      2: Step Time =,    20.00,"TUBE-1",           659,  -3.50742E-03,  -3.56342E-03,   50.0000E-03,NA,NA,"",   4.99998E-03,            0.,   50.0000E-03,  -16.5486E-09,   170.444E-12
C:/ALETube/PressureUpdate/LargeStep/DeformErode/JobErode.odb,Step-1,Increment      2: Step Time =,    20.00,"TUBE-1",           823,  -3.50742E-03,  -3.56342E-03,      62.5E-03,NA,NA,"",   4.99998E-03,            0.,      62.5E-03,  -16.5486E-09,   337.487E-12
C:/ALETube/PressureUpdate/LargeStep/DeformErode/JobErode.odb,Step-1,Increment      2: Step Time =,    20.00,"TUBE-1",           882,  -2.92791E-03,  -4.05307E-03,      62.5E-03,NA,NA,"",   5.00000E-03,            0.,      62.5E-03,  -3.30481E-09,   142.014E-12
C:/ALETube/PressureUpdate/LargeStep/DeformErode/JobErode.odb,Step-1,Increment      2: Step Time =,    20.00,"TUBE-1",          1046,  -2.92791E-03,  -4.05307E-03,   75.0000E-03,NA,NA,"",   5.00000E-03,            0.,   75.0000E-03,  -3.30481E-09,   215.925E-12
C:/ALETube/PressureUpdate/LargeStep/DeformErode/JobErode.odb,Step-1,Increment      2: Step Time =,    20.00,"TUBE-1",           987,  -3.50742E-03,  -3.56342E-03,   75.0000E-03,NA,NA,"",   4.99998E-03,            0.,   75.0000E-03,  -16.5486E-09,   172.810E-12
C:/ALETube/PressureUpdate/LargeStep/DeformErode/JobErode.odb,Step-1,Increment      2: Step Time =,    20.00,"TUBE-1",          1210,  -2.92791E-03,  -4.05307E-03,   87.5000E-03,NA,NA,"",   5.00000E-03,            0.,   87.5000E-03,  -3.30481E-09,   246.279E-12
C:/ALETube/PressureUpdate/LargeStep/DeformErode/JobErode.odb,Step-1,Increment      2: Step Time =,    20.00,"TUBE-1",          1151,  -3.50742E-03,  -3.56342E-03,   87.5000E-03,NA,NA,"",   4.99998E-03,            0.,   87.5000E-03,  -16.5486E-09,   140.384E-12
C:/ALETube/PressureUpdate/LargeStep/DeformErode/JobErode.odb,Step-1,Increment      2: Step Time =,    20.00,"TUBE-1",          1374,  -2.92791E-03,  -4.05307E-03,   100.000E-03,NA,NA,"",   5.00000E-03,            0.,   100.000E-03,  -3.30481E-09,   216.962E-12
C:/ALETube/PressureUpdate/LargeStep/DeformErode/JobErode.odb,Step-1,Increment      2: Step Time =,    20.00,"TUBE-1",          1315,  -3.50742E-03,  -3.56342E-03,   100.000E-03,NA,NA,"",   4.99998E-03,            0.,   100.000E-03,  -16.5486E-09,   169.675E-12
C:/ALETube/PressureUpdate/LargeStep/DeformErode/JobErode.odb,Step-1,Increment      2: Step Time =,    20.00,"TUBE-1",          1538,  -2.92791E-03,  -4.05307E-03,   112.500E-03,NA,NA,"",   5.00000E-03,            0.,   112.500E-03,  -3.30481E-09,   110.146E-12
C:/ALETube/PressureUpdate/LargeStep/DeformErode/JobErode.odb,Step-1,Increment      2: Step Time =,    20.00,"TUBE-1",          1479,  -3.50742E-03,  -3.56342E-03,   112.500E-03,NA,NA,"",   4.99998E-03,            0.,   112.500E-03,  -16.5486E-09,   144.685E-12
C:/ALETube/PressureUpdate/LargeStep/DeformErode/JobErode.odb,Step-1,Increment      2: Step Time =,    20.00,"TUBE-1",          1643,  -3.50742E-03,  -3.56342E-03,      125.E-03,NA,NA,"",   4.99998E-03,            0.,      125.E-03,  -16.5486E-09,   71.1281E-12
C:/ALETube/PressureUpdate/LargeStep/DeformErode/JobErode.odb,Step-1,Increment      2: Step Time =,    20.00,"TUBE-1",          1702,  -2.92791E-03,  -4.05307E-03,      125.E-03,NA,NA,"",   5.00000E-03,            0.,      125.E-03,  -3.30481E-09,   72.0084E-12
C:/ALETube/PressureUpdate/LargeStep/DeformErode/JobErode.odb,Step-1,Increment      2: Step Time =,    20.00,"TUBE-1",          1866,  -2.92791E-03,  -4.05307E-03,   137.500E-03,NA,NA,"",   5.00000E-03,            0.,   137.500E-03,  -3.30481E-09,   61.0539E-12
C:/ALETube/PressureUpdate/LargeStep/DeformErode/JobErode.odb,Step-1,Increment      2: Step Time =,    20.00,"TUBE-1",          1807,  -3.50742E-03,  -3.56342E-03,   137.500E-03,NA,NA,"",   4.99998E-03,            0.,   137.500E-03,  -16.5486E-09,   72.8110E-12
C:/ALETube/PressureUpdate/LargeStep/DeformErode/JobErode.odb,Step-1,Increment      2: Step Time =,    20.00,"TUBE-1",          2030,  -2.92791E-03,  -4.05307E-03,   150.000E-03,NA,NA,"",   5.00000E-03,            0.,   150.000E-03,  -3.30481E-09,   63.2478E-12
C:/ALETube/PressureUpdate/LargeStep/DeformErode/JobErode.odb,Step-1,Increment      2: Step Time =,    20.00,"TUBE-1",          1971,  -3.50742E-03,  -3.56342E-03,   150.000E-03,NA,NA,"",   4.99998E-03,            0.,   150.000E-03,  -16.5486E-09,   108.644E-12
C:/ALETube/PressureUpdate/LargeStep/DeformErode/JobErode.odb,Step-1,Increment      2: Step Time =,    20.00,"TUBE-1",          2194,  -2.92791E-03,  -4.05307E-03,   162.500E-03,NA,NA,"",   5.00000E-03,            0.,   162.500E-03,  -3.30481E-09,   62.9523E-12
C:/ALETube/PressureUpdate/LargeStep/DeformErode/JobErode.odb,Step-1,Increment      2: Step Time =,    20.00,"TUBE-1",          2135,  -3.50742E-03,  -3.56342E-03,   162.500E-03,NA,NA,"",   4.99998E-03,            0.,   162.500E-03,  -16.5486E-09,   105.710E-12
C:/ALETube/PressureUpdate/LargeStep/DeformErode/JobErode.odb,Step-1,Increment      2: Step Time =,    20.00,"TUBE-1",          2358,  -2.92791E-03,  -4.05307E-03,   175.000E-03,NA,NA,"",   5.00000E-03,            0.,   175.000E-03,  -3.30481E-09,   64.2478E-12
C:/ALETube/PressureUpdate/LargeStep/DeformErode/JobErode.odb,Step-1,Increment      2: Step Time =,    20.00,"TUBE-1",          2299,  -3.50742E-03,  -3.56342E-03,   175.000E-03,NA,NA,"",   4.99998E-03,            0.,   175.000E-03,  -16.5486E-09,   72.2000E-12
C:/ALETube/PressureUpdate/LargeStep/DeformErode/JobErode.odb,Step-1,Increment      2: Step Time =,    20.00,"TUBE-1",          2463,  -3.50742E-03,  -3.56342E-03,     187.5E-03,NA,NA,"",   4.99998E-03,            0.,     187.5E-03,  -16.5486E-09,   73.5587E-12
C:/ALETube/PressureUpdate/LargeStep/DeformErode/JobErode.odb,Step-1,Increment      2: Step Time =,    20.00,"TUBE-1",          2522,  -2.92791E-03,  -4.05307E-03,     187.5E-03,NA,NA,"",   5.00000E-03,            0.,     187.5E-03,  -3.30481E-09,   64.0664E-12
C:/ALETube/PressureUpdate/LargeStep/DeformErode/JobErode.odb,Step-1,Increment      2: Step Time =,    20.00,"TUBE-1",          2686,  -2.92791E-03,  -4.05307E-03,   200.000E-03,NA,NA,"",   5.00000E-03,            0.,   200.000E-03,  -3.30481E-09,   63.9197E-12
C:/ALETube/PressureUpdate/LargeStep/DeformErode/JobErode.odb,Step-1,Increment      2: Step Time =,    20.00,"TUBE-1",          2627,  -3.50742E-03,  -3.56342E-03,   200.000E-03,NA,NA,"",   4.99998E-03,            0.,   200.000E-03,  -16.5486E-09,   72.1518E-12
C:/ALETube/PressureUpdate/LargeStep/DeformErode/JobErode.odb,Step-1,Increment      2: Step Time =,    20.00,"TUBE-1",          2850,  -2.92791E-03,  -4.05307E-03,   212.500E-03,NA,NA,"",   5.00000E-03,            0.,   212.500E-03,  -3.30481E-09,   63.3571E-12
C:/ALETube/PressureUpdate/LargeStep/DeformErode/JobErode.odb,Step-1,Increment      2: Step Time =,    20.00,"TUBE-1",          2791,  -3.50742E-03,  -3.56342E-03,   212.500E-03,NA,NA,"",   4.99998E-03,            0.,   212.500E-03,  -16.5486E-09,   107.842E-12
C:/ALETube/PressureUpdate/LargeStep/DeformErode/JobErode.odb,Step-1,Increment      2: Step Time =,    20.00,"TUBE-1",          3014,  -2.92791E-03,  -4.05307E-03,   225.000E-03,NA,NA,"",   5.00000E-03,            0.,   225.000E-03,  -3.30481E-09,   62.1857E-12
C:/ALETube/PressureUpdate/LargeStep/DeformErode/JobErode.odb,Step-1,Increment      2: Step Time =,    20.00,"TUBE-1",          2955,  -3.50742E-03,  -3.56342E-03,   225.000E-03,NA,NA,"",   4.99998E-03,            0.,   225.000E-03,  -16.5486E-09,   103.658E-12
C:/ALETube/PressureUpdate/LargeStep/DeformErode/JobErode.odb,Step-1,Increment      2: Step Time =,    20.00,"TUBE-1",          3178,  -2.92791E-03,  -4.05307E-03,   237.500E-03,NA,NA,"",   5.00000E-03,            0.,   237.500E-03,  -3.30481E-09,   65.7219E-12
C:/ALETube/PressureUpdate/LargeStep/DeformErode/JobErode.odb,Step-1,Increment      2: Step Time =,    20.00,"TUBE-1",          3119,  -3.50742E-03,  -3.56342E-03,   237.500E-03,NA,NA,"",   4.99998E-03,            0.,   237.500E-03,  -16.5486E-09,   76.1571E-12
C:/ALETube/PressureUpdate/LargeStep/DeformErode/JobErode.odb,Step-1,Increment      2: Step Time =,    20.00,"TUBE-1",          3283,  -3.50742E-03,  -3.56342E-03,      250.E-03,NA,NA,"",   4.99998E-03,            0.,      250.E-03,  -16.5486E-09,   96.7740E-12
C:/ALETube/PressureUpdate/LargeStep/DeformErode/JobErode.odb,Step-1,Increment      2: Step Time =,    20.00,"TUBE-1",          3342,  -2.92791E-03,  -4.05307E-03,      250.E-03,NA,NA,"",   5.00000E-03,            0.,      250.E-03,  -3.30481E-09,   59.7877E-12
C:/ALETube/PressureUpdate/LargeStep/DeformErode/JobErode.odb,Step-1,Increment      2: Step Time =,    20.00,"TUBE-1",          3506,  -2.92791E-03,  -4.05307E-03,   262.500E-03,NA,NA,"",   5.00000E-03,            0.,   262.500E-03,  -3.30481E-09,   65.1848E-12
C:/ALETube/PressureUpdate/LargeStep/DeformErode/JobErode.odb,Step-1,Increment      2: Step Time =,    20.00,"TUBE-1",          3447,  -3.50742E-03,  -3.56342E-03,   262.500E-03,NA,NA,"",   4.99998E-03,            0.,   262.500E-03,  -16.5486E-09,   73.1660E-12
C:/ALETube/PressureUpdate/LargeStep/DeformErode/JobErode.odb,Step-1,Increment      2: Step Time =,    20.00,"TUBE-1",          3670,  -2.92791E-03,  -4.05307E-03,   275.000E-03,NA,NA,"",   5.00000E-03,            0.,   275.000E-03,  -3.30481E-09,   62.9944E-12
C:/ALETube/PressureUpdate/LargeStep/DeformErode/JobErode.odb,Step-1,Increment      2: Step Time =,    20.00,"TUBE-1",          3611,  -3.50742E-03,  -3.56342E-03,   275.000E-03,NA,NA,"",   4.99998E-03,            0.,   275.000E-03,  -16.5486E-09,   73.2626E-12
C:/ALETube/PressureUpdate/LargeStep/DeformErode/JobErode.odb,Step-1,Increment      2: Step Time =,    20.00,"TUBE-1",          3834,  -2.92791E-03,  -4.05307E-03,   287.500E-03,NA,NA,"",   5.00000E-03,            0.,   287.500E-03,  -3.30481E-09,   65.9720E-12
C:/ALETube/PressureUpdate/LargeStep/DeformErode/JobErode.odb,Step-1,Increment      2: Step Time =,    20.00,"TUBE-1",          3775,  -3.50742E-03,  -3.56342E-03,   287.500E-03,NA,NA,"",   4.99998E-03,            0.,   287.500E-03,  -16.5486E-09,   71.7259E-12
C:/ALETube/PressureUpdate/LargeStep/DeformErode/JobErode.odb,Step-1,Increment      2: Step Time =,    20.00,"TUBE-1",          3998,  -2.92791E-03,  -4.05307E-03,   300.000E-03,NA,NA,"",   5.00000E-03,            0.,   300.000E-03,  -3.30481E-09,   67.1413E-12
C:/ALETube/PressureUpdate/LargeStep/DeformErode/JobErode.odb,Step-1,Increment      2: Step Time =,    20.00,"TUBE-1",          3939,  -3.50742E-03,  -3.56342E-03,   300.000E-03,NA,NA,"",   4.99998E-03,            0.,   300.000E-03,  -16.5486E-09,   74.2061E-12
C:/ALETube/PressureUpdate/LargeStep/DeformErode/JobErode.odb,Step-1,Increment      2: Step Time =,    20.00,"TUBE-1",          4103,  -3.50742E-03,  -3.56342E-03,     312.5E-03,NA,NA,"",   4.99998E-03,            0.,     312.5E-03,  -16.5486E-09,   165.704E-12
C:/ALETube/PressureUpdate/LargeStep/DeformErode/JobErode.odb,Step-1,Increment      2: Step Time =,    20.00,"TUBE-1",          4162,  -2.92791E-03,  -4.05307E-03,     312.5E-03,NA,NA,"",   5.00000E-03,            0.,     312.5E-03,  -3.30481E-09,   340.731E-12
C:/ALETube/PressureUpdate/LargeStep/DeformErode/JobErode.odb,Step-1,Increment      2: Step Time =,    20.00,"TUBE-1",          4326,  -2.92791E-03,  -4.05307E-03,   325.000E-03,NA,NA,"",   5.00000E-03,            0.,   325.000E-03,  -3.30481E-09,   67.0550E-12
C:/ALETube/PressureUpdate/LargeStep/DeformErode/JobErode.odb,Step-1,Increment      2: Step Time =,    20.00,"TUBE-1",          4267,  -3.50742E-03,  -3.56342E-03,   325.000E-03,NA,NA,"",   4.99998E-03,            0.,   325.000E-03,  -16.5486E-09,   73.9584E-12
C:/ALETube/PressureUpdate/LargeStep/DeformErode/JobErode.odb,Step-1,Increment      2: Step Time =,    20.00,"TUBE-1",          4490,  -2.92791E-03,  -4.05307E-03,   337.500E-03,NA,NA,"",   5.00000E-03,            0.,   337.500E-03,  -3.30481E-09,   64.8064E-12
C:/ALETube/PressureUpdate/LargeStep/DeformErode/JobErode.odb,Step-1,Increment      2: Step Time =,    20.00,"TUBE-1",          4431,  -3.50742E-03,  -3.56342E-03,   337.500E-03,NA,NA,"",   4.99998E-03,            0.,   337.500E-03,  -16.5486E-09,   72.2049E-12
C:/ALETube/PressureUpdate/LargeStep/DeformErode/JobErode.odb,Step-1,Increment      2: Step Time =,    20.00,"TUBE-1",          4654,  -2.92791E-03,  -4.05307E-03,   350.000E-03,NA,NA,"",   5.00000E-03,            0.,   350.000E-03,  -3.30481E-09,   64.7331E-12
C:/ALETube/PressureUpdate/LargeStep/DeformErode/JobErode.odb,Step-1,Increment      2: Step Time =,    20.00,"TUBE-1",          4595,  -3.50742E-03,  -3.56342E-03,   350.000E-03,NA,NA,"",   4.99998E-03,            0.,   350.000E-03,  -16.5486E-09,   72.2258E-12
C:/ALETube/PressureUpdate/LargeStep/DeformErode/JobErode.odb,Step-1,Increment      2: Step Time =,    20.00,"TUBE-1",          4818,  -2.92791E-03,  -4.05307E-03,   362.500E-03,NA,NA,"",   5.00000E-03,            0.,   362.500E-03,  -3.30481E-09,   67.0723E-12
C:/ALETube/PressureUpdate/LargeStep/DeformErode/JobErode.odb,Step-1,Increment      2: Step Time =,    20.00,"TUBE-1",          4759,  -3.50742E-03,  -3.56342E-03,   362.500E-03,NA,NA,"",   4.99998E-03,            0.,   362.500E-03,  -16.5486E-09,   73.9140E-12
C:/ALETube/PressureUpdate/LargeStep/DeformErode/JobErode.odb,Step-1,Increment      2: Step Time =,    20.00,"TUBE-1",          4923,  -3.50742E-03,  -3.56342E-03,      375.E-03,NA,NA,"",   4.99998E-03,            0.,      375.E-03,  -16.5486E-09,   165.695E-12
C:/ALETube/PressureUpdate/LargeStep/DeformErode/JobErode.odb,Step-1,Increment      2: Step Time =,    20.00,"TUBE-1",          4982,  -2.92791E-03,  -4.05307E-03,      375.E-03,NA,NA,"",   5.00000E-03,            0.,      375.E-03,  -3.30481E-09,   340.869E-12
C:/ALETube/PressureUpdate/LargeStep/DeformErode/JobErode.odb,Step-1,Increment      2: Step Time =,    20.00,"TUBE-1",          5146,  -2.92791E-03,  -4.05307E-03,   387.500E-03,NA,NA,"",   5.00000E-03,            0.,   387.500E-03,  -3.30481E-09,   67.0701E-12
C:/ALETube/PressureUpdate/LargeStep/DeformErode/JobErode.odb,Step-1,Increment      2: Step Time =,    20.00,"TUBE-1",          5087,  -3.50742E-03,  -3.56342E-03,   387.500E-03,NA,NA,"",   4.99998E-03,            0.,   387.500E-03,  -16.5486E-09,   73.9153E-12
C:/ALETube/PressureUpdate/LargeStep/DeformErode/JobErode.odb,Step-1,Increment      2: Step Time =,    20.00,"TUBE-1",          5310,  -2.92791E-03,  -4.05307E-03,   400.000E-03,NA,NA,"",   5.00000E-03,            0.,   400.000E-03,  -3.30481E-09,   64.7505E-12
C:/ALETube/PressureUpdate/LargeStep/DeformErode/JobErode.odb,Step-1,Increment      2: Step Time =,    20.00,"TUBE-1",          5251,  -3.50742E-03,  -3.56342E-03,   400.000E-03,NA,NA,"",   4.99998E-03,            0.,   400.000E-03,  -16.5486E-09,   72.2197E-12
C:/ALETube/PressureUpdate/LargeStep/DeformErode/JobErode.odb,Step-1,Increment      2: Step Time =,    20.00,"TUBE-1",          5474,  -2.92791E-03,  -4.05307E-03,   412.500E-03,NA,NA,"",   5.00000E-03,            0.,   412.500E-03,  -3.30481E-09,   64.7639E-12
C:/ALETube/PressureUpdate/LargeStep/DeformErode/JobErode.odb,Step-1,Increment      2: Step Time =,    20.00,"TUBE-1",          5415,  -3.50742E-03,  -3.56342E-03,   412.500E-03,NA,NA,"",   4.99998E-03,            0.,   412.500E-03,  -16.5486E-09,   72.2204E-12
C:/ALETube/PressureUpdate/LargeStep/DeformErode/JobErode.odb,Step-1,Increment      2: Step Time =,    20.00,"TUBE-1",          5638,  -2.92791E-03,  -4.05307E-03,   425.000E-03,NA,NA,"",   5.00000E-03,            0.,   425.000E-03,  -3.30481E-09,   67.0841E-12
C:/ALETube/PressureUpdate/LargeStep/DeformErode/JobErode.odb,Step-1,Increment      2: Step Time =,    20.00,"TUBE-1",          5579,  -3.50742E-03,  -3.56342E-03,   425.000E-03,NA,NA,"",   4.99998E-03,            0.,   425.000E-03,  -16.5486E-09,   73.9351E-12
C:/ALETube/PressureUpdate/LargeStep/DeformErode/JobErode.odb,Step-1,Increment      2: Step Time =,    20.00,"TUBE-1",          5743,  -3.50742E-03,  -3.56342E-03,     437.5E-03,NA,NA,"",   4.99998E-03,            0.,     437.5E-03,  -16.5486E-09,   165.724E-12
C:/ALETube/PressureUpdate/LargeStep/DeformErode/JobErode.odb,Step-1,Increment      2: Step Time =,    20.00,"TUBE-1",          5802,  -2.92791E-03,  -4.05307E-03,     437.5E-03,NA,NA,"",   5.00000E-03,            0.,     437.5E-03,  -3.30481E-09,   340.804E-12
C:/ALETube/PressureUpdate/LargeStep/DeformErode/JobErode.odb,Step-1,Increment      2: Step Time =,    20.00,"TUBE-1",          5966,  -2.92791E-03,  -4.05307E-03,   450.000E-03,NA,NA,"",   5.00000E-03,            0.,   450.000E-03,  -3.30481E-09,   67.1760E-12
C:/ALETube/PressureUpdate/LargeStep/DeformErode/JobErode.odb,Step-1,Increment      2: Step Time =,    20.00,"TUBE-1",          5907,  -3.50742E-03,  -3.56342E-03,   450.000E-03,NA,NA,"",   4.99998E-03,            0.,   450.000E-03,  -16.5486E-09,   74.0255E-12
C:/ALETube/PressureUpdate/LargeStep/DeformErode/JobErode.odb,Step-1,Increment      2: Step Time =,    20.00,"TUBE-1",          6130,  -2.92791E-03,  -4.05307E-03,   462.500E-03,NA,NA,"",   5.00000E-03,            0.,   462.500E-03,  -3.30481E-09,   65.1156E-12
C:/ALETube/PressureUpdate/LargeStep/DeformErode/JobErode.odb,Step-1,Increment      2: Step Time =,    20.00,"TUBE-1",          6071,  -3.50742E-03,  -3.56342E-03,   462.500E-03,NA,NA,"",   4.99998E-03,            0.,   462.500E-03,  -16.5486E-09,   72.2884E-12
C:/ALETube/PressureUpdate/LargeStep/DeformErode/JobErode.odb,Step-1,Increment      2: Step Time =,    20.00,"TUBE-1",          6294,  -2.92791E-03,  -4.05307E-03,   475.000E-03,NA,NA,"",   5.00000E-03,            0.,   475.000E-03,  -3.30481E-09,   64.0511E-12
C:/ALETube/PressureUpdate/LargeStep/DeformErode/JobErode.odb,Step-1,Increment      2: Step Time =,    20.00,"TUBE-1",          6235,  -3.50742E-03,  -3.56342E-03,   475.000E-03,NA,NA,"",   4.99998E-03,            0.,   475.000E-03,  -16.5486E-09,   72.0576E-12
C:/ALETube/PressureUpdate/LargeStep/DeformErode/JobErode.odb,Step-1,Increment      2: Step Time =,    20.00,"TUBE-1",          6458,  -2.92791E-03,  -4.05307E-03,   487.500E-03,NA,NA,"",   5.00000E-03,            0.,   487.500E-03,  -3.30481E-09,   66.1275E-12
C:/ALETube/PressureUpdate/LargeStep/DeformErode/JobErode.odb,Step-1,Increment      2: Step Time =,    20.00,"TUBE-1",          6399,  -3.50742E-03,  -3.56342E-03,   487.500E-03,NA,NA,"",   4.99998E-03,            0.,   487.500E-03,  -16.5486E-09,   72.6762E-12
C:/ALETube/PressureUpdate/LargeStep/DeformErode/JobErode.odb,Step-1,Increment      2: Step Time =,    20.00,"TUBE-1",          6563,  -3.50742E-03,  -3.56342E-03,      500.E-03,NA,NA,"",   4.99998E-03,            0.,      500.E-03,  -16.5486E-09,   164.879E-12
C:/ALETube/PressureUpdate/LargeStep/DeformErode/JobErode.odb,Step-1,Increment      2: Step Time =,    20.00,"TUBE-1",          6622,  -2.92791E-03,  -4.05307E-03,      500.E-03,NA,NA,"",   5.00000E-03,            0.,      500.E-03,  -3.30481E-09,   345.106E-12
C:/ALETube/PressureUpdate/LargeStep/DeformErode/JobErode.odb,Step-1,Increment      2: Step Time =,    20.00,"TUBE-1",          6786,  -2.92791E-03,  -4.05307E-03,   512.500E-03,NA,NA,"",   5.00000E-03,            0.,   512.500E-03,  -3.30481E-09,   343.821E-12
C:/ALETube/PressureUpdate/LargeStep/DeformErode/JobErode.odb,Step-1,Increment      2: Step Time =,    20.00,"TUBE-1",          6727,  -3.50742E-03,  -3.56342E-03,   512.500E-03,NA,NA,"",   4.99998E-03,            0.,   512.500E-03,  -16.5486E-09,   164.723E-12
C:/ALETube/PressureUpdate/LargeStep/DeformErode/JobErode.odb,Step-1,Increment      2: Step Time =,    20.00,"TUBE-1",          6950,  -2.92791E-03,  -4.05307E-03,   525.000E-03,NA,NA,"",   5.00000E-03,            0.,   525.000E-03,  -3.30481E-09,   236.933E-12
C:/ALETube/PressureUpdate/LargeStep/DeformErode/JobErode.odb,Step-1,Increment      2: Step Time =,    20.00,"TUBE-1",          6891,  -3.50742E-03,  -3.56342E-03,   525.000E-03,NA,NA,"",   4.99998E-03,            0.,   525.000E-03,  -16.5486E-09,   163.013E-12
C:/ALETube/PressureUpdate/LargeStep/DeformErode/JobErode.odb,Step-1,Increment      2: Step Time =,    20.00,"TUBE-1",          7114,  -2.92791E-03,  -4.05307E-03,   537.500E-03,NA,NA,"",   5.00000E-03,            0.,   537.500E-03,  -3.30481E-09,   235.449E-12
C:/ALETube/PressureUpdate/LargeStep/DeformErode/JobErode.odb,Step-1,Increment      2: Step Time =,    20.00,"TUBE-1",          7055,  -3.50742E-03,  -3.56342E-03,   537.500E-03,NA,NA,"",   4.99998E-03,            0.,   537.500E-03,  -16.5486E-09,   163.378E-12
C:/ALETube/PressureUpdate/LargeStep/DeformErode/JobErode.odb,Step-1,Increment      2: Step Time =,    20.00,"TUBE-1",          7278,  -2.92791E-03,  -4.05307E-03,   550.000E-03,NA,NA,"",   5.00000E-03,            0.,   550.000E-03,  -3.30481E-09,   341.454E-12
C:/ALETube/PressureUpdate/LargeStep/DeformErode/JobErode.odb,Step-1,Increment      2: Step Time =,    20.00,"TUBE-1",          7219,  -3.50742E-03,  -3.56342E-03,   550.000E-03,NA,NA,"",   4.99998E-03,            0.,   550.000E-03,  -16.5486E-09,   163.845E-12
C:/ALETube/PressureUpdate/LargeStep/DeformErode/JobErode.odb,Step-1,Increment      2: Step Time =,    20.00,"TUBE-1",          7383,  -3.50742E-03,  -3.56342E-03,     562.5E-03,NA,NA,"",   4.99998E-03,            0.,     562.5E-03,  -16.5486E-09,   167.674E-12
C:/ALETube/PressureUpdate/LargeStep/DeformErode/JobErode.odb,Step-1,Increment      2: Step Time =,    20.00,"TUBE-1",          7442,  -2.92791E-03,  -4.05307E-03,     562.5E-03,NA,NA,"",   5.00000E-03,            0.,     562.5E-03,  -3.30481E-09,   350.094E-12
C:/ALETube/PressureUpdate/LargeStep/DeformErode/JobErode.odb,Step-1,Increment      2: Step Time =,    20.00,"TUBE-1",          7606,  -2.92791E-03,  -4.05307E-03,   575.000E-03,NA,NA,"",   5.00000E-03,            0.,   575.000E-03,  -3.30481E-09,   341.600E-12
C:/ALETube/PressureUpdate/LargeStep/DeformErode/JobErode.odb,Step-1,Increment      2: Step Time =,    20.00,"TUBE-1",          7547,  -3.50742E-03,  -3.56342E-03,   575.000E-03,NA,NA,"",   4.99998E-03,            0.,   575.000E-03,  -16.5486E-09,   163.852E-12
C:/ALETube/PressureUpdate/LargeStep/DeformErode/JobErode.odb,Step-1,Increment      2: Step Time =,    20.00,"TUBE-1",          7770,  -2.92791E-03,  -4.05307E-03,   587.500E-03,NA,NA,"",   5.00000E-03,            0.,   587.500E-03,  -3.30481E-09,   235.856E-12
C:/ALETube/PressureUpdate/LargeStep/DeformErode/JobErode.odb,Step-1,Increment      2: Step Time =,    20.00,"TUBE-1",          7711,  -3.50742E-03,  -3.56342E-03,   587.500E-03,NA,NA,"",   4.99998E-03,            0.,   587.500E-03,  -16.5486E-09,   163.260E-12
C:/ALETube/PressureUpdate/LargeStep/DeformErode/JobErode.odb,Step-1,Increment      2: Step Time =,    20.00,"TUBE-1",          7934,  -2.92791E-03,  -4.05307E-03,   600.000E-03,NA,NA,"",   5.00000E-03,            0.,   600.000E-03,  -3.30481E-09,   235.873E-12
C:/ALETube/PressureUpdate/LargeStep/DeformErode/JobErode.odb,Step-1,Increment      2: Step Time =,    20.00,"TUBE-1",          7875,  -3.50742E-03,  -3.56342E-03,   600.000E-03,NA,NA,"",   4.99998E-03,            0.,   600.000E-03,  -16.5486E-09,   163.255E-12
C:/ALETube/PressureUpdate/LargeStep/DeformErode/JobErode.odb,Step-1,Increment      2: Step Time =,    20.00,"TUBE-1",          8098,  -2.92791E-03,  -4.05307E-03,   612.500E-03,NA,NA,"",   5.00000E-03,            0.,   612.500E-03,  -3.30481E-09,   341.629E-12
C:/ALETube/PressureUpdate/LargeStep/DeformErode/JobErode.odb,Step-1,Increment      2: Step Time =,    20.00,"TUBE-1",          8039,  -3.50742E-03,  -3.56342E-03,   612.500E-03,NA,NA,"",   4.99998E-03,            0.,   612.500E-03,  -16.5486E-09,   163.856E-12
C:/ALETube/PressureUpdate/LargeStep/DeformErode/JobErode.odb,Step-1,Increment      2: Step Time =,    20.00,"TUBE-1",          8203,  -3.50742E-03,  -3.56342E-03,      625.E-03,NA,NA,"",   4.99998E-03,            0.,      625.E-03,  -16.5486E-09,   167.640E-12
C:/ALETube/PressureUpdate/LargeStep/DeformErode/JobErode.odb,Step-1,Increment      2: Step Time =,    20.00,"TUBE-1",          8262,  -2.92791E-03,  -4.05307E-03,      625.E-03,NA,NA,"",   5.00000E-03,            0.,      625.E-03,  -3.30481E-09,   350.014E-12
C:/ALETube/PressureUpdate/LargeStep/DeformErode/JobErode.odb,Step-1,Increment      2: Step Time =,    20.00,"TUBE-1",          8426,  -2.92791E-03,  -4.05307E-03,   637.500E-03,NA,NA,"",   5.00000E-03,            0.,   637.500E-03,  -3.30481E-09,   341.627E-12
C:/ALETube/PressureUpdate/LargeStep/DeformErode/JobErode.odb,Step-1,Increment      2: Step Time =,    20.00,"TUBE-1",          8367,  -3.50742E-03,  -3.56342E-03,   637.500E-03,NA,NA,"",   4.99998E-03,            0.,   637.500E-03,  -16.5486E-09,   163.856E-12
C:/ALETube/PressureUpdate/LargeStep/DeformErode/JobErode.odb,Step-1,Increment      2: Step Time =,    20.00,"TUBE-1",          8590,  -2.92791E-03,  -4.05307E-03,   650.000E-03,NA,NA,"",   5.00000E-03,            0.,   650.000E-03,  -3.30481E-09,   235.868E-12
C:/ALETube/PressureUpdate/LargeStep/DeformErode/JobErode.odb,Step-1,Increment      2: Step Time =,    20.00,"TUBE-1",          8531,  -3.50742E-03,  -3.56342E-03,   650.000E-03,NA,NA,"",   4.99998E-03,            0.,   650.000E-03,  -16.5486E-09,   163.256E-12
C:/ALETube/PressureUpdate/LargeStep/DeformErode/JobErode.odb,Step-1,Increment      2: Step Time =,    20.00,"TUBE-1",          8754,  -2.92791E-03,  -4.05307E-03,   662.500E-03,NA,NA,"",   5.00000E-03,            0.,   662.500E-03,  -3.30481E-09,   235.868E-12
C:/ALETube/PressureUpdate/LargeStep/DeformErode/JobErode.odb,Step-1,Increment      2: Step Time =,    20.00,"TUBE-1",          8695,  -3.50742E-03,  -3.56342E-03,   662.500E-03,NA,NA,"",   4.99998E-03,            0.,   662.500E-03,  -16.5486E-09,   163.256E-12
C:/ALETube/PressureUpdate/LargeStep/DeformErode/JobErode.odb,Step-1,Increment      2: Step Time =,    20.00,"TUBE-1",          8918,  -2.92791E-03,  -4.05307E-03,   675.000E-03,NA,NA,"",   5.00000E-03,            0.,   675.000E-03,  -3.30481E-09,   341.627E-12
C:/ALETube/PressureUpdate/LargeStep/DeformErode/JobErode.odb,Step-1,Increment      2: Step Time =,    20.00,"TUBE-1",          8859,  -3.50742E-03,  -3.56342E-03,   675.000E-03,NA,NA,"",   4.99998E-03,            0.,   675.000E-03,  -16.5486E-09,   163.856E-12
C:/ALETube/PressureUpdate/LargeStep/DeformErode/JobErode.odb,Step-1,Increment      2: Step Time =,    20.00,"TUBE-1",          9023,  -3.50742E-03,  -3.56342E-03,     687.5E-03,NA,NA,"",   4.99998E-03,            0.,     687.5E-03,  -16.5486E-09,   167.640E-12
C:/ALETube/PressureUpdate/LargeStep/DeformErode/JobErode.odb,Step-1,Increment      2: Step Time =,    20.00,"TUBE-1",          9082,  -2.92791E-03,  -4.05307E-03,     687.5E-03,NA,NA,"",   5.00000E-03,            0.,     687.5E-03,  -3.30481E-09,   350.014E-12
C:/ALETube/PressureUpdate/LargeStep/DeformErode/JobErode.odb,Step-1,Increment      2: Step Time =,    20.00,"TUBE-1",          9246,  -2.92791E-03,  -4.05307E-03,   700.000E-03,NA,NA,"",   5.00000E-03,            0.,   700.000E-03,  -3.30481E-09,   341.627E-12
C:/ALETube/PressureUpdate/LargeStep/DeformErode/JobErode.odb,Step-1,Increment      2: Step Time =,    20.00,"TUBE-1",          9187,  -3.50742E-03,  -3.56342E-03,   700.000E-03,NA,NA,"",   4.99998E-03,            0.,   700.000E-03,  -16.5486E-09,   163.856E-12
C:/ALETube/PressureUpdate/LargeStep/DeformErode/JobErode.odb,Step-1,Increment      2: Step Time =,    20.00,"TUBE-1",          9410,  -2.92791E-03,  -4.05307E-03,   712.500E-03,NA,NA,"",   5.00000E-03,            0.,   712.500E-03,  -3.30481E-09,   235.868E-12
C:/ALETube/PressureUpdate/LargeStep/DeformErode/JobErode.odb,Step-1,Increment      2: Step Time =,    20.00,"TUBE-1",          9351,  -3.50742E-03,  -3.56342E-03,   712.500E-03,NA,NA,"",   4.99998E-03,            0.,   712.500E-03,  -16.5486E-09,   163.256E-12
C:/ALETube/PressureUpdate/LargeStep/DeformErode/JobErode.odb,Step-1,Increment      2: Step Time =,    20.00,"TUBE-1",          9574,  -2.92791E-03,  -4.05307E-03,   725.000E-03,NA,NA,"",   5.00000E-03,            0.,   725.000E-03,  -3.30481E-09,   235.868E-12
C:/ALETube/PressureUpdate/LargeStep/DeformErode/JobErode.odb,Step-1,Increment      2: Step Time =,    20.00,"TUBE-1",          9515,  -3.50742E-03,  -3.56342E-03,   725.000E-03,NA,NA,"",   4.99998E-03,            0.,   725.000E-03,  -16.5486E-09,   163.256E-12
C:/ALETube/PressureUpdate/LargeStep/DeformErode/JobErode.odb,Step-1,Increment      2: Step Time =,    20.00,"TUBE-1",          9738,  -2.92791E-03,  -4.05307E-03,   737.500E-03,NA,NA,"",   5.00000E-03,            0.,   737.500E-03,  -3.30481E-09,   341.627E-12
C:/ALETube/PressureUpdate/LargeStep/DeformErode/JobErode.odb,Step-1,Increment      2: Step Time =,    20.00,"TUBE-1",          9679,  -3.50742E-03,  -3.56342E-03,   737.500E-03,NA,NA,"",   4.99998E-03,            0.,   737.500E-03,  -16.5486E-09,   163.856E-12
C:/ALETube/PressureUpdate/LargeStep/DeformErode/JobErode.odb,Step-1,Increment      2: Step Time =,    20.00,"TUBE-1",          9843,  -3.50742E-03,  -3.56342E-03,      750.E-03,NA,NA,"",   4.99998E-03,            0.,      750.E-03,  -16.5486E-09,   167.640E-12
C:/ALETube/PressureUpdate/LargeStep/DeformErode/JobErode.odb,Step-1,Increment      2: Step Time =,    20.00,"TUBE-1",          9902,  -2.92791E-03,  -4.05307E-03,      750.E-03,NA,NA,"",   5.00000E-03,            0.,      750.E-03,  -3.30481E-09,   350.014E-12
C:/ALETube/PressureUpdate/LargeStep/DeformErode/JobErode.odb,Step-1,Increment      2: Step Time =,    20.00,"TUBE-1",         10066,  -2.92791E-03,  -4.05307E-03,   762.500E-03,NA,NA,"",   5.00000E-03,            0.,   762.500E-03,  -3.30481E-09,   341.627E-12
C:/ALETube/PressureUpdate/LargeStep/DeformErode/JobErode.odb,Step-1,Increment      2: Step Time =,    20.00,"TUBE-1",         10007,  -3.50742E-03,  -3.56342E-03,   762.500E-03,NA,NA,"",   4.99998E-03,            0.,   762.500E-03,  -16.5486E-09,   163.856E-12
C:/ALETube/PressureUpdate/LargeStep/DeformErode/JobErode.odb,Step-1,Increment      2: Step Time =,    20.00,"TUBE-1",         10230,  -2.92791E-03,  -4.05307E-03,   775.000E-03,NA,NA,"",   5.00000E-03,            0.,   775.000E-03,  -3.30481E-09,   235.868E-12
C:/ALETube/PressureUpdate/LargeStep/DeformErode/JobErode.odb,Step-1,Increment      2: Step Time =,    20.00,"TUBE-1",         10171,  -3.50742E-03,  -3.56342E-03,   775.000E-03,NA,NA,"",   4.99998E-03,            0.,   775.000E-03,  -16.5486E-09,   163.256E-12
C:/ALETube/PressureUpdate/LargeStep/DeformErode/JobErode.odb,Step-1,Increment      2: Step Time =,    20.00,"TUBE-1",         10394,  -2.92791E-03,  -4.05307E-03,   787.500E-03,NA,NA,"",   5.00000E-03,            0.,   787.500E-03,  -3.30481E-09,   235.868E-12
C:/ALETube/PressureUpdate/LargeStep/DeformErode/JobErode.odb,Step-1,Increment      2: Step Time =,    20.00,"TUBE-1",         10335,  -3.50742E-03,  -3.56342E-03,   787.500E-03,NA,NA,"",   4.99998E-03,            0.,   787.500E-03,  -16.5486E-09,   163.256E-12
C:/ALETube/PressureUpdate/LargeStep/DeformErode/JobErode.odb,Step-1,Increment      2: Step Time =,    20.00,"TUBE-1",         10558,  -2.92791E-03,  -4.05307E-03,   800.000E-03,NA,NA,"",   5.00000E-03,            0.,   800.000E-03,  -3.30481E-09,   341.627E-12
C:/ALETube/PressureUpdate/LargeStep/DeformErode/JobErode.odb,Step-1,Increment      2: Step Time =,    20.00,"TUBE-1",         10499,  -3.50742E-03,  -3.56342E-03,   800.000E-03,NA,NA,"",   4.99998E-03,            0.,   800.000E-03,  -16.5486E-09,   163.856E-12
C:/ALETube/PressureUpdate/LargeStep/DeformErode/JobErode.odb,Step-1,Increment      2: Step Time =,    20.00,"TUBE-1",         10663,  -3.50742E-03,  -3.56342E-03,     812.5E-03,NA,NA,"",   4.99998E-03,            0.,     812.5E-03,  -16.5486E-09,   167.640E-12
C:/ALETube/PressureUpdate/LargeStep/DeformErode/JobErode.odb,Step-1,Increment      2: Step Time =,    20.00,"TUBE-1",         10722,  -2.92791E-03,  -4.05307E-03,     812.5E-03,NA,NA,"",   5.00000E-03,            0.,     812.5E-03,  -3.30481E-09,   350.014E-12
C:/ALETube/PressureUpdate/LargeStep/DeformErode/JobErode.odb,Step-1,Increment      2: Step Time =,    20.00,"TUBE-1",         10886,  -2.92791E-03,  -4.05307E-03,   825.000E-03,NA,NA,"",   5.00000E-03,            0.,   825.000E-03,  -3.30481E-09,   341.627E-12
C:/ALETube/PressureUpdate/LargeStep/DeformErode/JobErode.odb,Step-1,Increment      2: Step Time =,    20.00,"TUBE-1",         10827,  -3.50742E-03,  -3.56342E-03,   825.000E-03,NA,NA,"",   4.99998E-03,            0.,   825.000E-03,  -16.5486E-09,   163.856E-12
C:/ALETube/PressureUpdate/LargeStep/DeformErode/JobErode.odb,Step-1,Increment      2: Step Time =,    20.00,"TUBE-1",         11050,  -2.92791E-03,  -4.05307E-03,   837.500E-03,NA,NA,"",   5.00000E-03,            0.,   837.500E-03,  -3.30481E-09,   235.868E-12
C:/ALETube/PressureUpdate/LargeStep/DeformErode/JobErode.odb,Step-1,Increment      2: Step Time =,    20.00,"TUBE-1",         10991,  -3.50742E-03,  -3.56342E-03,   837.500E-03,NA,NA,"",   4.99998E-03,            0.,   837.500E-03,  -16.5486E-09,   163.256E-12
C:/ALETube/PressureUpdate/LargeStep/DeformErode/JobErode.odb,Step-1,Increment      2: Step Time =,    20.00,"TUBE-1",         11214,  -2.92791E-03,  -4.05307E-03,   850.000E-03,NA,NA,"",   5.00000E-03,            0.,   850.000E-03,  -3.30481E-09,   235.868E-12
C:/ALETube/PressureUpdate/LargeStep/DeformErode/JobErode.odb,Step-1,Increment      2: Step Time =,    20.00,"TUBE-1",         11155,  -3.50742E-03,  -3.56342E-03,   850.000E-03,NA,NA,"",   4.99998E-03,            0.,   850.000E-03,  -16.5486E-09,   163.256E-12
C:/ALETube/PressureUpdate/LargeStep/DeformErode/JobErode.odb,Step-1,Increment      2: Step Time =,    20.00,"TUBE-1",         11378,  -2.92791E-03,  -4.05307E-03,   862.500E-03,NA,NA,"",   5.00000E-03,            0.,   862.500E-03,  -3.30481E-09,   341.627E-12
C:/ALETube/PressureUpdate/LargeStep/DeformErode/JobErode.odb,Step-1,Increment      2: Step Time =,    20.00,"TUBE-1",         11319,  -3.50742E-03,  -3.56342E-03,   862.500E-03,NA,NA,"",   4.99998E-03,            0.,   862.500E-03,  -16.5486E-09,   163.857E-12
C:/ALETube/PressureUpdate/LargeStep/DeformErode/JobErode.odb,Step-1,Increment      2: Step Time =,    20.00,"TUBE-1",         11483,  -3.50742E-03,  -3.56342E-03,      875.E-03,NA,NA,"",   4.99998E-03,            0.,      875.E-03,  -16.5486E-09,   167.637E-12
C:/ALETube/PressureUpdate/LargeStep/DeformErode/JobErode.odb,Step-1,Increment      2: Step Time =,    20.00,"TUBE-1",         11542,  -2.92791E-03,  -4.05307E-03,      875.E-03,NA,NA,"",   5.00000E-03,            0.,      875.E-03,  -3.30481E-09,   350.014E-12
C:/ALETube/PressureUpdate/LargeStep/DeformErode/JobErode.odb,Step-1,Increment      2: Step Time =,    20.00,"TUBE-1",         11706,  -2.92791E-03,  -4.05307E-03,   887.500E-03,NA,NA,"",   5.00000E-03,            0.,   887.500E-03,  -3.30481E-09,   341.629E-12
C:/ALETube/PressureUpdate/LargeStep/DeformErode/JobErode.odb,Step-1,Increment      2: Step Time =,    20.00,"TUBE-1",         11647,  -3.50742E-03,  -3.56342E-03,   887.500E-03,NA,NA,"",   4.99998E-03,            0.,   887.500E-03,  -16.5486E-09,   163.860E-12
C:/ALETube/PressureUpdate/LargeStep/DeformErode/JobErode.odb,Step-1,Increment      2: Step Time =,    20.00,"TUBE-1",         11870,  -2.92791E-03,  -4.05307E-03,   900.000E-03,NA,NA,"",   5.00000E-03,            0.,   900.000E-03,  -3.30481E-09,   235.871E-12
C:/ALETube/PressureUpdate/LargeStep/DeformErode/JobErode.odb,Step-1,Increment      2: Step Time =,    20.00,"TUBE-1",         11811,  -3.50742E-03,  -3.56342E-03,   900.000E-03,NA,NA,"",   4.99998E-03,            0.,   900.000E-03,  -16.5486E-09,   163.258E-12
C:/ALETube/PressureUpdate/LargeStep/DeformErode/JobErode.odb,Step-1,Increment      2: Step Time =,    20.00,"TUBE-1",         12034,  -2.92791E-03,  -4.05307E-03,   912.500E-03,NA,NA,"",   5.00000E-03,            0.,   912.500E-03,  -3.30481E-09,   235.861E-12
C:/ALETube/PressureUpdate/LargeStep/DeformErode/JobErode.odb,Step-1,Increment      2: Step Time =,    20.00,"TUBE-1",         11975,  -3.50742E-03,  -3.56342E-03,   912.500E-03,NA,NA,"",   4.99998E-03,            0.,   912.500E-03,  -16.5486E-09,   163.254E-12
C:/ALETube/PressureUpdate/LargeStep/DeformErode/JobErode.odb,Step-1,Increment      2: Step Time =,    20.00,"TUBE-1",         12198,  -2.92791E-03,  -4.05307E-03,   925.000E-03,NA,NA,"",   5.00000E-03,            0.,   925.000E-03,  -3.30481E-09,   341.611E-12
C:/ALETube/PressureUpdate/LargeStep/DeformErode/JobErode.odb,Step-1,Increment      2: Step Time =,    20.00,"TUBE-1",         12139,  -3.50742E-03,  -3.56342E-03,   925.000E-03,NA,NA,"",   4.99998E-03,            0.,   925.000E-03,  -16.5486E-09,   163.793E-12
C:/ALETube/PressureUpdate/LargeStep/DeformErode/JobErode.odb,Step-1,Increment      2: Step Time =,    20.00,"TUBE-1",         12303,  -3.50742E-03,  -3.56342E-03,     937.5E-03,NA,NA,"",   4.99998E-03,            0.,     937.5E-03,  -16.5486E-09,   167.870E-12
C:/ALETube/PressureUpdate/LargeStep/DeformErode/JobErode.odb,Step-1,Increment      2: Step Time =,    20.00,"TUBE-1",         12362,  -2.92791E-03,  -4.05307E-03,     937.5E-03,NA,NA,"",   5.00000E-03,            0.,     937.5E-03,  -3.30481E-09,   350.049E-12
C:/ALETube/PressureUpdate/LargeStep/DeformErode/JobErode.odb,Step-1,Increment      2: Step Time =,    20.00,"TUBE-1",         12526,  -2.92791E-03,  -4.05307E-03,   950.000E-03,NA,NA,"",   5.00000E-03,            0.,   950.000E-03,  -3.30481E-09,   341.539E-12
C:/ALETube/PressureUpdate/LargeStep/DeformErode/JobErode.odb,Step-1,Increment      2: Step Time =,    20.00,"TUBE-1",         12467,  -3.50742E-03,  -3.56342E-03,   950.000E-03,NA,NA,"",   4.99998E-03,            0.,   950.000E-03,  -16.5486E-09,   163.514E-12
C:/ALETube/PressureUpdate/LargeStep/DeformErode/JobErode.odb,Step-1,Increment      2: Step Time =,    20.00,"TUBE-1",         12690,  -2.92791E-03,  -4.05307E-03,   962.500E-03,NA,NA,"",   5.00000E-03,            0.,   962.500E-03,  -3.30481E-09,   235.577E-12
C:/ALETube/PressureUpdate/LargeStep/DeformErode/JobErode.odb,Step-1,Increment      2: Step Time =,    20.00,"TUBE-1",         12631,  -3.50742E-03,  -3.56342E-03,   962.500E-03,NA,NA,"",   4.99998E-03,            0.,   962.500E-03,  -16.5486E-09,   163.258E-12
C:/ALETube/PressureUpdate/LargeStep/DeformErode/JobErode.odb,Step-1,Increment      2: Step Time =,    20.00,"TUBE-1",         12854,  -2.92791E-03,  -4.05307E-03,   975.000E-03,NA,NA,"",   5.00000E-03,            0.,   975.000E-03,  -3.30481E-09,   237.133E-12
C:/ALETube/PressureUpdate/LargeStep/DeformErode/JobErode.odb,Step-1,Increment      2: Step Time =,    20.00,"TUBE-1",         12795,  -3.50742E-03,  -3.56342E-03,   975.000E-03,NA,NA,"",   4.99998E-03,            0.,   975.000E-03,  -16.5486E-09,   162.780E-12
C:/ALETube/PressureUpdate/LargeStep/DeformErode/JobErode.odb,Step-1,Increment      2: Step Time =,    20.00,"TUBE-1",         13018,  -2.92791E-03,  -4.05307E-03,   987.500E-03,NA,NA,"",   5.00000E-03,            0.,   987.500E-03,  -3.30481E-09,   345.682E-12
C:/ALETube/PressureUpdate/LargeStep/DeformErode/JobErode.odb,Step-1,Increment      2: Step Time =,    20.00,"TUBE-1",         12959,  -3.50742E-03,  -3.56342E-03,   987.500E-03,NA,NA,"",   4.99998E-03,            0.,   987.500E-03,  -16.5486E-09,   168.515E-12
C:/ALETube/PressureUpdate/LargeStep/DeformErode/JobErode.odb,Step-1,Increment      2: Step Time =,    20.00,"TUBE-1",         13123,  -3.50742E-03,  -3.56342E-03,            1.,NA,NA,"",   4.99998E-03,            0.,            1.,  -16.5486E-09,   157.572E-12
C:/ALETube/PressureUpdate/LargeStep/DeformErode/JobErode.odb,Step-1,Increment      2: Step Time =,    20.00,"TUBE-1",         13182,  -2.92791E-03,  -4.05307E-03,            1.,NA,NA,"",   5.00000E-03,            0.,            1.,  -3.30481E-09,   149.487E-12
C:/ALETube/PressureUpdate/LargeStep/DeformErode/JobErode.odb,Step-1,Increment      2: Step Time =,    20.00,"TUBE-1",         13346,  -2.92791E-03,  -4.05307E-03,       1.01250,NA,NA,"",   5.00000E-03,            0.,       1.01250,  -3.30481E-09,   232.601E-12
C:/ALETube/PressureUpdate/LargeStep/DeformErode/JobErode.odb,Step-1,Increment      2: Step Time =,    20.00,"TUBE-1",         13287,  -3.50742E-03,  -3.56342E-03,       1.01250,NA,NA,"",   4.99998E-03,            0.,       1.01250,  -16.5486E-09,   158.858E-12
C:/ALETube/PressureUpdate/LargeStep/DeformErode/JobErode.odb,Step-1,Increment      2: Step Time =,    20.00,"TUBE-1",         13510,  -2.92791E-03,  -4.05307E-03,       1.02500,NA,NA,"",   5.00000E-03,            0.,       1.02500,  -3.30481E-09,   174.537E-12
C:/ALETube/PressureUpdate/LargeStep/DeformErode/JobErode.odb,Step-1,Increment      2: Step Time =,    20.00,"TUBE-1",         13451,  -3.50742E-03,  -3.56342E-03,       1.02500,NA,NA,"",   4.99998E-03,            0.,       1.02500,  -16.5486E-09,   241.939E-12
C:/ALETube/PressureUpdate/LargeStep/DeformErode/JobErode.odb,Step-1,Increment      2: Step Time =,    20.00,"TUBE-1",         13615,  -3.50742E-03,  -3.56342E-03,       1.03750,NA,NA,"",   4.99998E-03,            0.,       1.03750,  -16.5486E-09,   241.245E-12
C:/ALETube/PressureUpdate/LargeStep/DeformErode/JobErode.odb,Step-1,Increment      2: Step Time =,    20.00,"TUBE-1",         13674,  -2.92791E-03,  -4.05307E-03,       1.03750,NA,NA,"",   5.00000E-03,            0.,       1.03750,  -3.30481E-09,   175.092E-12
C:/ALETube/PressureUpdate/LargeStep/DeformErode/JobErode.odb,Step-1,Increment      2: Step Time =,    20.00,"TUBE-1",         13838,  -2.92791E-03,  -4.05307E-03,       1.05000,NA,NA,"",   5.00000E-03,            0.,       1.05000,  -3.30481E-09,   236.914E-12
C:/ALETube/PressureUpdate/LargeStep/DeformErode/JobErode.odb,Step-1,Increment      2: Step Time =,    20.00,"TUBE-1",         13779,  -3.50742E-03,  -3.56342E-03,       1.05000,NA,NA,"",   4.99998E-03,            0.,       1.05000,  -16.5486E-09,   159.921E-12
C:/ALETube/PressureUpdate/LargeStep/DeformErode/JobErode.odb,Step-1,Increment      2: Step Time =,    20.00,"TUBE-1",         14002,  -2.92791E-03,  -4.05307E-03,        1.0625,NA,NA,"",   5.00000E-03,            0.,        1.0625,  -3.30481E-09,   103.637E-12
C:/ALETube/PressureUpdate/LargeStep/DeformErode/JobErode.odb,Step-1,Increment      2: Step Time =,    20.00,"TUBE-1",         13943,  -3.50742E-03,  -3.56342E-03,        1.0625,NA,NA,"",   4.99998E-03,            0.,        1.0625,  -16.5486E-09,   172.353E-12
C:/ALETube/PressureUpdate/LargeStep/DeformErode/JobErode.odb,Step-1,Increment      2: Step Time =,    20.00,"TUBE-1",         14107,  -3.50742E-03,  -3.56342E-03,       1.07500,NA,NA,"",   4.99998E-03,            0.,       1.07500,  -16.5486E-09,   159.763E-12
C:/ALETube/PressureUpdate/LargeStep/DeformErode/JobErode.odb,Step-1,Increment      2: Step Time =,    20.00,"TUBE-1",         14166,  -2.92791E-03,  -4.05307E-03,       1.07500,NA,NA,"",   5.00000E-03,            0.,       1.07500,  -3.30481E-09,   236.996E-12
C:/ALETube/PressureUpdate/LargeStep/DeformErode/JobErode.odb,Step-1,Increment      2: Step Time =,    20.00,"TUBE-1",         14330,  -2.92791E-03,  -4.05307E-03,       1.08750,NA,NA,"",   5.00000E-03,            0.,       1.08750,  -3.30481E-09,   175.074E-12
C:/ALETube/PressureUpdate/LargeStep/DeformErode/JobErode.odb,Step-1,Increment      2: Step Time =,    20.00,"TUBE-1",         14271,  -3.50742E-03,  -3.56342E-03,       1.08750,NA,NA,"",   4.99998E-03,            0.,       1.08750,  -16.5486E-09,   241.210E-12
C:/ALETube/PressureUpdate/LargeStep/DeformErode/JobErode.odb,Step-1,Increment      2: Step Time =,    20.00,"TUBE-1",         14494,  -2.92791E-03,  -4.05307E-03,       1.10000,NA,NA,"",   5.00000E-03,            0.,       1.10000,  -3.30481E-09,   175.081E-12
C:/ALETube/PressureUpdate/LargeStep/DeformErode/JobErode.odb,Step-1,Increment      2: Step Time =,    20.00,"TUBE-1",         14435,  -3.50742E-03,  -3.56342E-03,       1.10000,NA,NA,"",   4.99998E-03,            0.,       1.10000,  -16.5486E-09,   241.199E-12
C:/ALETube/PressureUpdate/LargeStep/DeformErode/JobErode.odb,Step-1,Increment      2: Step Time =,    20.00,"TUBE-1",         14658,  -2.92791E-03,  -4.05307E-03,       1.11250,NA,NA,"",   5.00000E-03,            0.,       1.11250,  -3.30481E-09,   237.021E-12
C:/ALETube/PressureUpdate/LargeStep/DeformErode/JobErode.odb,Step-1,Increment      2: Step Time =,    20.00,"TUBE-1",         14599,  -3.50742E-03,  -3.56342E-03,       1.11250,NA,NA,"",   4.99998E-03,            0.,       1.11250,  -16.5486E-09,   159.748E-12
C:/ALETube/PressureUpdate/LargeStep/DeformErode/JobErode.odb,Step-1,Increment      2: Step Time =,    20.00,"TUBE-1",         14822,  -2.92791E-03,  -4.05307E-03,         1.125,NA,NA,"",   5.00000E-03,            0.,         1.125,  -3.30481E-09,   103.521E-12
C:/ALETube/PressureUpdate/LargeStep/DeformErode/JobErode.odb,Step-1,Increment      2: Step Time =,    20.00,"TUBE-1",         14763,  -3.50742E-03,  -3.56342E-03,         1.125,NA,NA,"",   4.99998E-03,            0.,         1.125,  -16.5486E-09,   172.314E-12
C:/ALETube/PressureUpdate/LargeStep/DeformErode/JobErode.odb,Step-1,Increment      2: Step Time =,    20.00,"TUBE-1",         14927,  -3.50742E-03,  -3.56342E-03,       1.13750,NA,NA,"",   4.99998E-03,            0.,       1.13750,  -16.5486E-09,   159.749E-12
C:/ALETube/PressureUpdate/LargeStep/DeformErode/JobErode.odb,Step-1,Increment      2: Step Time =,    20.00,"TUBE-1",         14986,  -2.92791E-03,  -4.05307E-03,       1.13750,NA,NA,"",   5.00000E-03,            0.,       1.13750,  -3.30481E-09,   237.019E-12
C:/ALETube/PressureUpdate/LargeStep/DeformErode/JobErode.odb,Step-1,Increment      2: Step Time =,    20.00,"TUBE-1",         15150,  -2.92791E-03,  -4.05307E-03,       1.15000,NA,NA,"",   5.00000E-03,            0.,       1.15000,  -3.30481E-09,   175.080E-12
C:/ALETube/PressureUpdate/LargeStep/DeformErode/JobErode.odb,Step-1,Increment      2: Step Time =,    20.00,"TUBE-1",         15091,  -3.50742E-03,  -3.56342E-03,       1.15000,NA,NA,"",   4.99998E-03,            0.,       1.15000,  -16.5486E-09,   241.202E-12
C:/ALETube/PressureUpdate/LargeStep/DeformErode/JobErode.odb,Step-1,Increment      2: Step Time =,    20.00,"TUBE-1",         15314,  -2.92791E-03,  -4.05307E-03,       1.16250,NA,NA,"",   5.00000E-03,            0.,       1.16250,  -3.30481E-09,   175.079E-12
C:/ALETube/PressureUpdate/LargeStep/DeformErode/JobErode.odb,Step-1,Increment      2: Step Time =,    20.00,"TUBE-1",         15255,  -3.50742E-03,  -3.56342E-03,       1.16250,NA,NA,"",   4.99998E-03,            0.,       1.16250,  -16.5486E-09,   241.203E-12
C:/ALETube/PressureUpdate/LargeStep/DeformErode/JobErode.odb,Step-1,Increment      2: Step Time =,    20.00,"TUBE-1",         15478,  -2.92791E-03,  -4.05307E-03,       1.17500,NA,NA,"",   5.00000E-03,            0.,       1.17500,  -3.30481E-09,   237.019E-12
C:/ALETube/PressureUpdate/LargeStep/DeformErode/JobErode.odb,Step-1,Increment      2: Step Time =,    20.00,"TUBE-1",         15419,  -3.50742E-03,  -3.56342E-03,       1.17500,NA,NA,"",   4.99998E-03,            0.,       1.17500,  -16.5486E-09,   159.749E-12
C:/ALETube/PressureUpdate/LargeStep/DeformErode/JobErode.odb,Step-1,Increment      2: Step Time =,    20.00,"TUBE-1",         15642,  -2.92791E-03,  -4.05307E-03,        1.1875,NA,NA,"",   5.00000E-03,            0.,        1.1875,  -3.30481E-09,   103.523E-12
C:/ALETube/PressureUpdate/LargeStep/DeformErode/JobErode.odb,Step-1,Increment      2: Step Time =,    20.00,"TUBE-1",         15583,  -3.50742E-03,  -3.56342E-03,        1.1875,NA,NA,"",   4.99998E-03,            0.,        1.1875,  -16.5486E-09,   172.314E-12
C:/ALETube/PressureUpdate/LargeStep/DeformErode/JobErode.odb,Step-1,Increment      2: Step Time =,    20.00,"TUBE-1",         15747,  -3.50742E-03,  -3.56342E-03,       1.20000,NA,NA,"",   4.99998E-03,            0.,       1.20000,  -16.5486E-09,   159.749E-12
C:/ALETube/PressureUpdate/LargeStep/DeformErode/JobErode.odb,Step-1,Increment      2: Step Time =,    20.00,"TUBE-1",         15806,  -2.92791E-03,  -4.05307E-03,       1.20000,NA,NA,"",   5.00000E-03,            0.,       1.20000,  -3.30481E-09,   237.019E-12
C:/ALETube/PressureUpdate/LargeStep/DeformErode/JobErode.odb,Step-1,Increment      2: Step Time =,    20.00,"TUBE-1",         15970,  -2.92791E-03,  -4.05307E-03,       1.21250,NA,NA,"",   5.00000E-03,            0.,       1.21250,  -3.30481E-09,   175.079E-12
C:/ALETube/PressureUpdate/LargeStep/DeformErode/JobErode.odb,Step-1,Increment      2: Step Time =,    20.00,"TUBE-1",         15911,  -3.50742E-03,  -3.56342E-03,       1.21250,NA,NA,"",   4.99998E-03,            0.,       1.21250,  -16.5486E-09,   241.203E-12
C:/ALETube/PressureUpdate/LargeStep/DeformErode/JobErode.odb,Step-1,Increment      2: Step Time =,    20.00,"TUBE-1",         16134,  -2.92791E-03,  -4.05307E-03,       1.22500,NA,NA,"",   5.00000E-03,            0.,       1.22500,  -3.30481E-09,   175.079E-12
C:/ALETube/PressureUpdate/LargeStep/DeformErode/JobErode.odb,Step-1,Increment      2: Step Time =,    20.00,"TUBE-1",         16075,  -3.50742E-03,  -3.56342E-03,       1.22500,NA,NA,"",   4.99998E-03,            0.,       1.22500,  -16.5486E-09,   241.203E-12
C:/ALETube/PressureUpdate/LargeStep/DeformErode/JobErode.odb,Step-1,Increment      2: Step Time =,    20.00,"TUBE-1",         16298,  -2.92791E-03,  -4.05307E-03,       1.23750,NA,NA,"",   5.00000E-03,            0.,       1.23750,  -3.30481E-09,   237.019E-12
C:/ALETube/PressureUpdate/LargeStep/DeformErode/JobErode.odb,Step-1,Increment      2: Step Time =,    20.00,"TUBE-1",         16239,  -3.50742E-03,  -3.56342E-03,       1.23750,NA,NA,"",   4.99998E-03,            0.,       1.23750,  -16.5486E-09,   159.749E-12
C:/ALETube/PressureUpdate/LargeStep/DeformErode/JobErode.odb,Step-1,Increment      2: Step Time =,    20.00,"TUBE-1",         16462,  -2.92791E-03,  -4.05307E-03,          1.25,NA,NA,"",   5.00000E-03,            0.,          1.25,  -3.30481E-09,   103.523E-12
C:/ALETube/PressureUpdate/LargeStep/DeformErode/JobErode.odb,Step-1,Increment      2: Step Time =,    20.00,"TUBE-1",         16403,  -3.50742E-03,  -3.56342E-03,          1.25,NA,NA,"",   4.99998E-03,            0.,          1.25,  -16.5486E-09,   172.314E-12
C:/ALETube/PressureUpdate/LargeStep/DeformErode/JobErode.odb,Step-1,Increment      2: Step Time =,    20.00,"TUBE-1",         16567,  -3.50742E-03,  -3.56342E-03,       1.26250,NA,NA,"",   4.99998E-03,            0.,       1.26250,  -16.5486E-09,   159.749E-12
C:/ALETube/PressureUpdate/LargeStep/DeformErode/JobErode.odb,Step-1,Increment      2: Step Time =,    20.00,"TUBE-1",         16626,  -2.92791E-03,  -4.05307E-03,       1.26250,NA,NA,"",   5.00000E-03,            0.,       1.26250,  -3.30481E-09,   237.019E-12
C:/ALETube/PressureUpdate/LargeStep/DeformErode/JobErode.odb,Step-1,Increment      2: Step Time =,    20.00,"TUBE-1",         16790,  -2.92791E-03,  -4.05307E-03,       1.27500,NA,NA,"",   5.00000E-03,            0.,       1.27500,  -3.30481E-09,   175.079E-12
C:/ALETube/PressureUpdate/LargeStep/DeformErode/JobErode.odb,Step-1,Increment      2: Step Time =,    20.00,"TUBE-1",         16731,  -3.50742E-03,  -3.56342E-03,       1.27500,NA,NA,"",   4.99998E-03,            0.,       1.27500,  -16.5486E-09,   241.203E-12
C:/ALETube/PressureUpdate/LargeStep/DeformErode/JobErode.odb,Step-1,Increment      2: Step Time =,    20.00,"TUBE-1",         16954,  -2.92791E-03,  -4.05307E-03,       1.28750,NA,NA,"",   5.00000E-03,            0.,       1.28750,  -3.30481E-09,   175.079E-12
C:/ALETube/PressureUpdate/LargeStep/DeformErode/JobErode.odb,Step-1,Increment      2: Step Time =,    20.00,"TUBE-1",         16895,  -3.50742E-03,  -3.56342E-03,       1.28750,NA,NA,"",   4.99998E-03,            0.,       1.28750,  -16.5486E-09,   241.203E-12
C:/ALETube/PressureUpdate/LargeStep/DeformErode/JobErode.odb,Step-1,Increment      2: Step Time =,    20.00,"TUBE-1",         17118,  -2.92791E-03,  -4.05307E-03,       1.30000,NA,NA,"",   5.00000E-03,            0.,       1.30000,  -3.30481E-09,   237.019E-12
C:/ALETube/PressureUpdate/LargeStep/DeformErode/JobErode.odb,Step-1,Increment      2: Step Time =,    20.00,"TUBE-1",         17059,  -3.50742E-03,  -3.56342E-03,       1.30000,NA,NA,"",   4.99998E-03,            0.,       1.30000,  -16.5486E-09,   159.749E-12
C:/ALETube/PressureUpdate/LargeStep/DeformErode/JobErode.odb,Step-1,Increment      2: Step Time =,    20.00,"TUBE-1",         17282,  -2.92791E-03,  -4.05307E-03,        1.3125,NA,NA,"",   5.00000E-03,            0.,        1.3125,  -3.30481E-09,   103.523E-12
C:/ALETube/PressureUpdate/LargeStep/DeformErode/JobErode.odb,Step-1,Increment      2: Step Time =,    20.00,"TUBE-1",         17223,  -3.50742E-03,  -3.56342E-03,        1.3125,NA,NA,"",   4.99998E-03,            0.,        1.3125,  -16.5486E-09,   172.314E-12
C:/ALETube/PressureUpdate/LargeStep/DeformErode/JobErode.odb,Step-1,Increment      2: Step Time =,    20.00,"TUBE-1",         17387,  -3.50742E-03,  -3.56342E-03,       1.32500,NA,NA,"",   4.99998E-03,            0.,       1.32500,  -16.5486E-09,   159.749E-12
C:/ALETube/PressureUpdate/LargeStep/DeformErode/JobErode.odb,Step-1,Increment      2: Step Time =,    20.00,"TUBE-1",         17446,  -2.92791E-03,  -4.05307E-03,       1.32500,NA,NA,"",   5.00000E-03,            0.,       1.32500,  -3.30481E-09,   237.019E-12
C:/ALETube/PressureUpdate/LargeStep/DeformErode/JobErode.odb,Step-1,Increment      2: Step Time =,    20.00,"TUBE-1",         17610,  -2.92791E-03,  -4.05307E-03,       1.33750,NA,NA,"",   5.00000E-03,            0.,       1.33750,  -3.30481E-09,   175.079E-12
C:/ALETube/PressureUpdate/LargeStep/DeformErode/JobErode.odb,Step-1,Increment      2: Step Time =,    20.00,"TUBE-1",         17551,  -3.50742E-03,  -3.56342E-03,       1.33750,NA,NA,"",   4.99998E-03,            0.,       1.33750,  -16.5486E-09,   241.203E-12
C:/ALETube/PressureUpdate/LargeStep/DeformErode/JobErode.odb,Step-1,Increment      2: Step Time =,    20.00,"TUBE-1",         17774,  -2.92791E-03,  -4.05307E-03,       1.35000,NA,NA,"",   5.00000E-03,            0.,       1.35000,  -3.30481E-09,   175.079E-12
C:/ALETube/PressureUpdate/LargeStep/DeformErode/JobErode.odb,Step-1,Increment      2: Step Time =,    20.00,"TUBE-1",         17715,  -3.50742E-03,  -3.56342E-03,       1.35000,NA,NA,"",   4.99998E-03,            0.,       1.35000,  -16.5486E-09,   241.203E-12
C:/ALETube/PressureUpdate/LargeStep/DeformErode/JobErode.odb,Step-1,Increment      2: Step Time =,    20.00,"TUBE-1",         17938,  -2.92791E-03,  -4.05307E-03,       1.36250,NA,NA,"",   5.00000E-03,            0.,       1.36250,  -3.30481E-09,   237.019E-12
C:/ALETube/PressureUpdate/LargeStep/DeformErode/JobErode.odb,Step-1,Increment      2: Step Time =,    20.00,"TUBE-1",         17879,  -3.50742E-03,  -3.56342E-03,       1.36250,NA,NA,"",   4.99998E-03,            0.,       1.36250,  -16.5486E-09,   159.749E-12
C:/ALETube/PressureUpdate/LargeStep/DeformErode/JobErode.odb,Step-1,Increment      2: Step Time =,    20.00,"TUBE-1",         18102,  -2.92791E-03,  -4.05307E-03,         1.375,NA,NA,"",   5.00000E-03,            0.,         1.375,  -3.30481E-09,   103.523E-12
C:/ALETube/PressureUpdate/LargeStep/DeformErode/JobErode.odb,Step-1,Increment      2: Step Time =,    20.00,"TUBE-1",         18043,  -3.50742E-03,  -3.56342E-03,         1.375,NA,NA,"",   4.99998E-03,            0.,         1.375,  -16.5486E-09,   172.314E-12
C:/ALETube/PressureUpdate/LargeStep/DeformErode/JobErode.odb,Step-1,Increment      2: Step Time =,    20.00,"TUBE-1",         18207,  -3.50742E-03,  -3.56342E-03,       1.38750,NA,NA,"",   4.99998E-03,            0.,       1.38750,  -16.5486E-09,   159.749E-12
C:/ALETube/PressureUpdate/LargeStep/DeformErode/JobErode.odb,Step-1,Increment      2: Step Time =,    20.00,"TUBE-1",         18266,  -2.92791E-03,  -4.05307E-03,       1.38750,NA,NA,"",   5.00000E-03,            0.,       1.38750,  -3.30481E-09,   237.019E-12
C:/ALETube/PressureUpdate/LargeStep/DeformErode/JobErode.odb,Step-1,Increment      2: Step Time =,    20.00,"TUBE-1",         18430,  -2.92791E-03,  -4.05307E-03,       1.40000,NA,NA,"",   5.00000E-03,            0.,       1.40000,  -3.30481E-09,   175.079E-12
C:/ALETube/PressureUpdate/LargeStep/DeformErode/JobErode.odb,Step-1,Increment      2: Step Time =,    20.00,"TUBE-1",         18371,  -3.50742E-03,  -3.56342E-03,       1.40000,NA,NA,"",   4.99998E-03,            0.,       1.40000,  -16.5486E-09,   241.203E-12
C:/ALETube/PressureUpdate/LargeStep/DeformErode/JobErode.odb,Step-1,Increment      2: Step Time =,    20.00,"TUBE-1",         18594,  -2.92791E-03,  -4.05307E-03,       1.41250,NA,NA,"",   5.00000E-03,            0.,       1.41250,  -3.30481E-09,   175.079E-12
C:/ALETube/PressureUpdate/LargeStep/DeformErode/JobErode.odb,Step-1,Increment      2: Step Time =,    20.00,"TUBE-1",         18535,  -3.50742E-03,  -3.56342E-03,       1.41250,NA,NA,"",   4.99998E-03,            0.,       1.41250,  -16.5486E-09,   241.203E-12
C:/ALETube/PressureUpdate/LargeStep/DeformErode/JobErode.odb,Step-1,Increment      2: Step Time =,    20.00,"TUBE-1",         18758,  -2.92791E-03,  -4.05307E-03,       1.42500,NA,NA,"",   5.00000E-03,            0.,       1.42500,  -3.30481E-09,   237.019E-12
C:/ALETube/PressureUpdate/LargeStep/DeformErode/JobErode.odb,Step-1,Increment      2: Step Time =,    20.00,"TUBE-1",         18699,  -3.50742E-03,  -3.56342E-03,       1.42500,NA,NA,"",   4.99998E-03,            0.,       1.42500,  -16.5486E-09,   159.749E-12
C:/ALETube/PressureUpdate/LargeStep/DeformErode/JobErode.odb,Step-1,Increment      2: Step Time =,    20.00,"TUBE-1",         18922,  -2.92791E-03,  -4.05307E-03,        1.4375,NA,NA,"",   5.00000E-03,            0.,        1.4375,  -3.30481E-09,   103.523E-12
C:/ALETube/PressureUpdate/LargeStep/DeformErode/JobErode.odb,Step-1,Increment      2: Step Time =,    20.00,"TUBE-1",         18863,  -3.50742E-03,  -3.56342E-03,        1.4375,NA,NA,"",   4.99998E-03,            0.,        1.4375,  -16.5486E-09,   172.314E-12
C:/ALETube/PressureUpdate/LargeStep/DeformErode/JobErode.odb,Step-1,Increment      2: Step Time =,    20.00,"TUBE-1",         19027,  -3.50742E-03,  -3.56342E-03,       1.45000,NA,NA,"",   4.99998E-03,            0.,       1.45000,  -16.5486E-09,   159.749E-12
C:/ALETube/PressureUpdate/LargeStep/DeformErode/JobErode.odb,Step-1,Increment      2: Step Time =,    20.00,"TUBE-1",         19086,  -2.92791E-03,  -4.05307E-03,       1.45000,NA,NA,"",   5.00000E-03,            0.,       1.45000,  -3.30481E-09,   237.019E-12
C:/ALETube/PressureUpdate/LargeStep/DeformErode/JobErode.odb,Step-1,Increment      2: Step Time =,    20.00,"TUBE-1",         19250,  -2.92791E-03,  -4.05307E-03,       1.46250,NA,NA,"",   5.00000E-03,            0.,       1.46250,  -3.30481E-09,   175.079E-12
C:/ALETube/PressureUpdate/LargeStep/DeformErode/JobErode.odb,Step-1,Increment      2: Step Time =,    20.00,"TUBE-1",         19191,  -3.50742E-03,  -3.56342E-03,       1.46250,NA,NA,"",   4.99998E-03,            0.,       1.46250,  -16.5486E-09,   241.203E-12
C:/ALETube/PressureUpdate/LargeStep/DeformErode/JobErode.odb,Step-1,Increment      2: Step Time =,    20.00,"TUBE-1",         19414,  -2.92791E-03,  -4.05307E-03,       1.47500,NA,NA,"",   5.00000E-03,            0.,       1.47500,  -3.30481E-09,   175.079E-12
C:/ALETube/PressureUpdate/LargeStep/DeformErode/JobErode.odb,Step-1,Increment      2: Step Time =,    20.00,"TUBE-1",         19355,  -3.50742E-03,  -3.56342E-03,       1.47500,NA,NA,"",   4.99998E-03,            0.,       1.47500,  -16.5486E-09,   241.203E-12
C:/ALETube/PressureUpdate/LargeStep/DeformErode/JobErode.odb,Step-1,Increment      2: Step Time =,    20.00,"TUBE-1",         19578,  -2.92791E-03,  -4.05307E-03,       1.48750,NA,NA,"",   5.00000E-03,            0.,       1.48750,  -3.30481E-09,   237.019E-12
C:/ALETube/PressureUpdate/LargeStep/DeformErode/JobErode.odb,Step-1,Increment      2: Step Time =,    20.00,"TUBE-1",         19519,  -3.50742E-03,  -3.56342E-03,       1.48750,NA,NA,"",   4.99998E-03,            0.,       1.48750,  -16.5486E-09,   159.749E-12
C:/ALETube/PressureUpdate/LargeStep/DeformErode/JobErode.odb,Step-1,Increment      2: Step Time =,    20.00,"TUBE-1",         19742,  -2.92791E-03,  -4.05307E-03,           1.5,NA,NA,"",   5.00000E-03,            0.,           1.5,  -3.30481E-09,   103.523E-12
C:/ALETube/PressureUpdate/LargeStep/DeformErode/JobErode.odb,Step-1,Increment      2: Step Time =,    20.00,"TUBE-1",         19683,  -3.50742E-03,  -3.56342E-03,           1.5,NA,NA,"",   4.99998E-03,            0.,           1.5,  -16.5486E-09,   172.314E-12
C:/ALETube/PressureUpdate/LargeStep/DeformErode/JobErode.odb,Step-1,Increment      2: Step Time =,    20.00,"TUBE-1",         19847,  -3.50742E-03,  -3.56342E-03,       1.51250,NA,NA,"",   4.99998E-03,            0.,       1.51250,  -16.5486E-09,   159.749E-12
C:/ALETube/PressureUpdate/LargeStep/DeformErode/JobErode.odb,Step-1,Increment      2: Step Time =,    20.00,"TUBE-1",         19906,  -2.92791E-03,  -4.05307E-03,       1.51250,NA,NA,"",   5.00000E-03,            0.,       1.51250,  -3.30481E-09,   237.019E-12
C:/ALETube/PressureUpdate/LargeStep/DeformErode/JobErode.odb,Step-1,Increment      2: Step Time =,    20.00,"TUBE-1",         20070,  -2.92791E-03,  -4.05307E-03,       1.52500,NA,NA,"",   5.00000E-03,            0.,       1.52500,  -3.30481E-09,   175.079E-12
C:/ALETube/PressureUpdate/LargeStep/DeformErode/JobErode.odb,Step-1,Increment      2: Step Time =,    20.00,"TUBE-1",         20011,  -3.50742E-03,  -3.56342E-03,       1.52500,NA,NA,"",   4.99998E-03,            0.,       1.52500,  -16.5486E-09,   241.203E-12
C:/ALETube/PressureUpdate/LargeStep/DeformErode/JobErode.odb,Step-1,Increment      2: Step Time =,    20.00,"TUBE-1",         20234,  -2.92791E-03,  -4.05307E-03,       1.53750,NA,NA,"",   5.00000E-03,            0.,       1.53750,  -3.30481E-09,   175.079E-12
C:/ALETube/PressureUpdate/LargeStep/DeformErode/JobErode.odb,Step-1,Increment      2: Step Time =,    20.00,"TUBE-1",         20175,  -3.50742E-03,  -3.56342E-03,       1.53750,NA,NA,"",   4.99998E-03,            0.,       1.53750,  -16.5486E-09,   241.203E-12
C:/ALETube/PressureUpdate/LargeStep/DeformErode/JobErode.odb,Step-1,Increment      2: Step Time =,    20.00,"TUBE-1",         20398,  -2.92791E-03,  -4.05307E-03,       1.55000,NA,NA,"",   5.00000E-03,            0.,       1.55000,  -3.30481E-09,   237.019E-12
C:/ALETube/PressureUpdate/LargeStep/DeformErode/JobErode.odb,Step-1,Increment      2: Step Time =,    20.00,"TUBE-1",         20339,  -3.50742E-03,  -3.56342E-03,       1.55000,NA,NA,"",   4.99998E-03,            0.,       1.55000,  -16.5486E-09,   159.749E-12
C:/ALETube/PressureUpdate/LargeStep/DeformErode/JobErode.odb,Step-1,Increment      2: Step Time =,    20.00,"TUBE-1",         20562,  -2.92791E-03,  -4.05307E-03,        1.5625,NA,NA,"",   5.00000E-03,            0.,        1.5625,  -3.30481E-09,   103.523E-12
C:/ALETube/PressureUpdate/LargeStep/DeformErode/JobErode.odb,Step-1,Increment      2: Step Time =,    20.00,"TUBE-1",         20503,  -3.50742E-03,  -3.56342E-03,        1.5625,NA,NA,"",   4.99998E-03,            0.,        1.5625,  -16.5486E-09,   172.314E-12
C:/ALETube/PressureUpdate/LargeStep/DeformErode/JobErode.odb,Step-1,Increment      2: Step Time =,    20.00,"TUBE-1",         20667,  -3.50742E-03,  -3.56342E-03,       1.57500,NA,NA,"",   4.99998E-03,            0.,       1.57500,  -16.5486E-09,   159.749E-12
C:/ALETube/PressureUpdate/LargeStep/DeformErode/JobErode.odb,Step-1,Increment      2: Step Time =,    20.00,"TUBE-1",         20726,  -2.92791E-03,  -4.05307E-03,       1.57500,NA,NA,"",   5.00000E-03,            0.,       1.57500,  -3.30481E-09,   237.019E-12
C:/ALETube/PressureUpdate/LargeStep/DeformErode/JobErode.odb,Step-1,Increment      2: Step Time =,    20.00,"TUBE-1",         20890,  -2.92791E-03,  -4.05307E-03,       1.58750,NA,NA,"",   5.00000E-03,            0.,       1.58750,  -3.30481E-09,   175.079E-12
C:/ALETube/PressureUpdate/LargeStep/DeformErode/JobErode.odb,Step-1,Increment      2: Step Time =,    20.00,"TUBE-1",         20831,  -3.50742E-03,  -3.56342E-03,       1.58750,NA,NA,"",   4.99998E-03,            0.,       1.58750,  -16.5486E-09,   241.203E-12
C:/ALETube/PressureUpdate/LargeStep/DeformErode/JobErode.odb,Step-1,Increment      2: Step Time =,    20.00,"TUBE-1",         21054,  -2.92791E-03,  -4.05307E-03,       1.60000,NA,NA,"",   5.00000E-03,            0.,       1.60000,  -3.30481E-09,   175.079E-12
C:/ALETube/PressureUpdate/LargeStep/DeformErode/JobErode.odb,Step-1,Increment      2: Step Time =,    20.00,"TUBE-1",         20995,  -3.50742E-03,  -3.56342E-03,       1.60000,NA,NA,"",   4.99998E-03,            0.,       1.60000,  -16.5486E-09,   241.203E-12
C:/ALETube/PressureUpdate/LargeStep/DeformErode/JobErode.odb,Step-1,Increment      2: Step Time =,    20.00,"TUBE-1",         21218,  -2.92791E-03,  -4.05307E-03,       1.61250,NA,NA,"",   5.00000E-03,            0.,       1.61250,  -3.30481E-09,   237.019E-12
C:/ALETube/PressureUpdate/LargeStep/DeformErode/JobErode.odb,Step-1,Increment      2: Step Time =,    20.00,"TUBE-1",         21159,  -3.50742E-03,  -3.56342E-03,       1.61250,NA,NA,"",   4.99998E-03,            0.,       1.61250,  -16.5486E-09,   159.749E-12
C:/ALETube/PressureUpdate/LargeStep/DeformErode/JobErode.odb,Step-1,Increment      2: Step Time =,    20.00,"TUBE-1",         21382,  -2.92791E-03,  -4.05307E-03,         1.625,NA,NA,"",   5.00000E-03,            0.,         1.625,  -3.30481E-09,   103.523E-12
C:/ALETube/PressureUpdate/LargeStep/DeformErode/JobErode.odb,Step-1,Increment      2: Step Time =,    20.00,"TUBE-1",         21323,  -3.50742E-03,  -3.56342E-03,         1.625,NA,NA,"",   4.99998E-03,            0.,         1.625,  -16.5486E-09,   172.314E-12
C:/ALETube/PressureUpdate/LargeStep/DeformErode/JobErode.odb,Step-1,Increment      2: Step Time =,    20.00,"TUBE-1",         21487,  -3.50742E-03,  -3.56342E-03,       1.63750,NA,NA,"",   4.99998E-03,            0.,       1.63750,  -16.5486E-09,   159.749E-12
C:/ALETube/PressureUpdate/LargeStep/DeformErode/JobErode.odb,Step-1,Increment      2: Step Time =,    20.00,"TUBE-1",         21546,  -2.92791E-03,  -4.05307E-03,       1.63750,NA,NA,"",   5.00000E-03,            0.,       1.63750,  -3.30481E-09,   237.019E-12
C:/ALETube/PressureUpdate/LargeStep/DeformErode/JobErode.odb,Step-1,Increment      2: Step Time =,    20.00,"TUBE-1",         21710,  -2.92791E-03,  -4.05307E-03,       1.65000,NA,NA,"",   5.00000E-03,            0.,       1.65000,  -3.30481E-09,   175.079E-12
C:/ALETube/PressureUpdate/LargeStep/DeformErode/JobErode.odb,Step-1,Increment      2: Step Time =,    20.00,"TUBE-1",         21651,  -3.50742E-03,  -3.56342E-03,       1.65000,NA,NA,"",   4.99998E-03,            0.,       1.65000,  -16.5486E-09,   241.203E-12
C:/ALETube/PressureUpdate/LargeStep/DeformErode/JobErode.odb,Step-1,Increment      2: Step Time =,    20.00,"TUBE-1",         21874,  -2.92791E-03,  -4.05307E-03,       1.66250,NA,NA,"",   5.00000E-03,            0.,       1.66250,  -3.30481E-09,   175.079E-12
C:/ALETube/PressureUpdate/LargeStep/DeformErode/JobErode.odb,Step-1,Increment      2: Step Time =,    20.00,"TUBE-1",         21815,  -3.50742E-03,  -3.56342E-03,       1.66250,NA,NA,"",   4.99998E-03,            0.,       1.66250,  -16.5486E-09,   241.203E-12
C:/ALETube/PressureUpdate/LargeStep/DeformErode/JobErode.odb,Step-1,Increment      2: Step Time =,    20.00,"TUBE-1",         22038,  -2.92791E-03,  -4.05307E-03,       1.67500,NA,NA,"",   5.00000E-03,            0.,       1.67500,  -3.30481E-09,   237.019E-12
C:/ALETube/PressureUpdate/LargeStep/DeformErode/JobErode.odb,Step-1,Increment      2: Step Time =,    20.00,"TUBE-1",         21979,  -3.50742E-03,  -3.56342E-03,       1.67500,NA,NA,"",   4.99998E-03,            0.,       1.67500,  -16.5486E-09,   159.749E-12
C:/ALETube/PressureUpdate/LargeStep/DeformErode/JobErode.odb,Step-1,Increment      2: Step Time =,    20.00,"TUBE-1",         22202,  -2.92791E-03,  -4.05307E-03,        1.6875,NA,NA,"",   5.00000E-03,            0.,        1.6875,  -3.30481E-09,   103.523E-12
C:/ALETube/PressureUpdate/LargeStep/DeformErode/JobErode.odb,Step-1,Increment      2: Step Time =,    20.00,"TUBE-1",         22143,  -3.50742E-03,  -3.56342E-03,        1.6875,NA,NA,"",   4.99998E-03,            0.,        1.6875,  -16.5486E-09,   172.314E-12
C:/ALETube/PressureUpdate/LargeStep/DeformErode/JobErode.odb,Step-1,Increment      2: Step Time =,    20.00,"TUBE-1",         22307,  -3.50742E-03,  -3.56342E-03,       1.70000,NA,NA,"",   4.99998E-03,            0.,       1.70000,  -16.5486E-09,   159.749E-12
C:/ALETube/PressureUpdate/LargeStep/DeformErode/JobErode.odb,Step-1,Increment      2: Step Time =,    20.00,"TUBE-1",         22366,  -2.92791E-03,  -4.05307E-03,       1.70000,NA,NA,"",   5.00000E-03,            0.,       1.70000,  -3.30481E-09,   237.019E-12
C:/ALETube/PressureUpdate/LargeStep/DeformErode/JobErode.odb,Step-1,Increment      2: Step Time =,    20.00,"TUBE-1",         22530,  -2.92791E-03,  -4.05307E-03,       1.71250,NA,NA,"",   5.00000E-03,            0.,       1.71250,  -3.30481E-09,   175.079E-12
C:/ALETube/PressureUpdate/LargeStep/DeformErode/JobErode.odb,Step-1,Increment      2: Step Time =,    20.00,"TUBE-1",         22471,  -3.50742E-03,  -3.56342E-03,       1.71250,NA,NA,"",   4.99998E-03,            0.,       1.71250,  -16.5486E-09,   241.203E-12
C:/ALETube/PressureUpdate/LargeStep/DeformErode/JobErode.odb,Step-1,Increment      2: Step Time =,    20.00,"TUBE-1",         22694,  -2.92791E-03,  -4.05307E-03,       1.72500,NA,NA,"",   5.00000E-03,            0.,       1.72500,  -3.30481E-09,   175.079E-12
C:/ALETube/PressureUpdate/LargeStep/DeformErode/JobErode.odb,Step-1,Increment      2: Step Time =,    20.00,"TUBE-1",         22635,  -3.50742E-03,  -3.56342E-03,       1.72500,NA,NA,"",   4.99998E-03,            0.,       1.72500,  -16.5486E-09,   241.203E-12
C:/ALETube/PressureUpdate/LargeStep/DeformErode/JobErode.odb,Step-1,Increment      2: Step Time =,    20.00,"TUBE-1",         22858,  -2.92791E-03,  -4.05307E-03,       1.73750,NA,NA,"",   5.00000E-03,            0.,       1.73750,  -3.30481E-09,   237.019E-12
C:/ALETube/PressureUpdate/LargeStep/DeformErode/JobErode.odb,Step-1,Increment      2: Step Time =,    20.00,"TUBE-1",         22799,  -3.50742E-03,  -3.56342E-03,       1.73750,NA,NA,"",   4.99998E-03,            0.,       1.73750,  -16.5486E-09,   159.749E-12
C:/ALETube/PressureUpdate/LargeStep/DeformErode/JobErode.odb,Step-1,Increment      2: Step Time =,    20.00,"TUBE-1",         23022,  -2.92791E-03,  -4.05307E-03,          1.75,NA,NA,"",   5.00000E-03,            0.,          1.75,  -3.30481E-09,   103.523E-12
C:/ALETube/PressureUpdate/LargeStep/DeformErode/JobErode.odb,Step-1,Increment      2: Step Time =,    20.00,"TUBE-1",         22963,  -3.50742E-03,  -3.56342E-03,          1.75,NA,NA,"",   4.99998E-03,            0.,          1.75,  -16.5486E-09,   172.314E-12
C:/ALETube/PressureUpdate/LargeStep/DeformErode/JobErode.odb,Step-1,Increment      2: Step Time =,    20.00,"TUBE-1",         23127,  -3.50742E-03,  -3.56342E-03,       1.76250,NA,NA,"",   4.99998E-03,            0.,       1.76250,  -16.5486E-09,   159.749E-12
C:/ALETube/PressureUpdate/LargeStep/DeformErode/JobErode.odb,Step-1,Increment      2: Step Time =,    20.00,"TUBE-1",         23186,  -2.92791E-03,  -4.05307E-03,       1.76250,NA,NA,"",   5.00000E-03,            0.,       1.76250,  -3.30481E-09,   237.019E-12
C:/ALETube/PressureUpdate/LargeStep/DeformErode/JobErode.odb,Step-1,Increment      2: Step Time =,    20.00,"TUBE-1",         23350,  -2.92791E-03,  -4.05307E-03,       1.77500,NA,NA,"",   5.00000E-03,            0.,       1.77500,  -3.30481E-09,   175.079E-12
C:/ALETube/PressureUpdate/LargeStep/DeformErode/JobErode.odb,Step-1,Increment      2: Step Time =,    20.00,"TUBE-1",         23291,  -3.50742E-03,  -3.56342E-03,       1.77500,NA,NA,"",   4.99998E-03,            0.,       1.77500,  -16.5486E-09,   241.203E-12
C:/ALETube/PressureUpdate/LargeStep/DeformErode/JobErode.odb,Step-1,Increment      2: Step Time =,    20.00,"TUBE-1",         23514,  -2.92791E-03,  -4.05307E-03,       1.78750,NA,NA,"",   5.00000E-03,            0.,       1.78750,  -3.30481E-09,   175.079E-12
C:/ALETube/PressureUpdate/LargeStep/DeformErode/JobErode.odb,Step-1,Increment      2: Step Time =,    20.00,"TUBE-1",         23455,  -3.50742E-03,  -3.56342E-03,       1.78750,NA,NA,"",   4.99998E-03,            0.,       1.78750,  -16.5486E-09,   241.203E-12
C:/ALETube/PressureUpdate/LargeStep/DeformErode/JobErode.odb,Step-1,Increment      2: Step Time =,    20.00,"TUBE-1",         23678,  -2.92791E-03,  -4.05307E-03,       1.80000,NA,NA,"",   5.00000E-03,            0.,       1.80000,  -3.30481E-09,   237.019E-12
C:/ALETube/PressureUpdate/LargeStep/DeformErode/JobErode.odb,Step-1,Increment      2: Step Time =,    20.00,"TUBE-1",         23619,  -3.50742E-03,  -3.56342E-03,       1.80000,NA,NA,"",   4.99998E-03,            0.,       1.80000,  -16.5486E-09,   159.749E-12
C:/ALETube/PressureUpdate/LargeStep/DeformErode/JobErode.odb,Step-1,Increment      2: Step Time =,    20.00,"TUBE-1",         23842,  -2.92791E-03,  -4.05307E-03,        1.8125,NA,NA,"",   5.00000E-03,            0.,        1.8125,  -3.30481E-09,   103.523E-12
C:/ALETube/PressureUpdate/LargeStep/DeformErode/JobErode.odb,Step-1,Increment      2: Step Time =,    20.00,"TUBE-1",         23783,  -3.50742E-03,  -3.56342E-03,        1.8125,NA,NA,"",   4.99998E-03,            0.,        1.8125,  -16.5486E-09,   172.314E-12
C:/ALETube/PressureUpdate/LargeStep/DeformErode/JobErode.odb,Step-1,Increment      2: Step Time =,    20.00,"TUBE-1",         23947,  -3.50742E-03,  -3.56342E-03,       1.82500,NA,NA,"",   4.99998E-03,            0.,       1.82500,  -16.5486E-09,   159.748E-12
C:/ALETube/PressureUpdate/LargeStep/DeformErode/JobErode.odb,Step-1,Increment      2: Step Time =,    20.00,"TUBE-1",         24006,  -2.92791E-03,  -4.05307E-03,       1.82500,NA,NA,"",   5.00000E-03,            0.,       1.82500,  -3.30481E-09,   237.019E-12
C:/ALETube/PressureUpdate/LargeStep/DeformErode/JobErode.odb,Step-1,Increment      2: Step Time =,    20.00,"TUBE-1",         24170,  -2.92791E-03,  -4.05307E-03,       1.83750,NA,NA,"",   5.00000E-03,            0.,       1.83750,  -3.30481E-09,   175.079E-12
C:/ALETube/PressureUpdate/LargeStep/DeformErode/JobErode.odb,Step-1,Increment      2: Step Time =,    20.00,"TUBE-1",         24111,  -3.50742E-03,  -3.56342E-03,       1.83750,NA,NA,"",   4.99998E-03,            0.,       1.83750,  -16.5486E-09,   241.202E-12
C:/ALETube/PressureUpdate/LargeStep/DeformErode/JobErode.odb,Step-1,Increment      2: Step Time =,    20.00,"TUBE-1",         24334,  -2.92791E-03,  -4.05307E-03,       1.85000,NA,NA,"",   5.00000E-03,            0.,       1.85000,  -3.30481E-09,   175.080E-12
C:/ALETube/PressureUpdate/LargeStep/DeformErode/JobErode.odb,Step-1,Increment      2: Step Time =,    20.00,"TUBE-1",         24275,  -3.50742E-03,  -3.56342E-03,       1.85000,NA,NA,"",   4.99998E-03,            0.,       1.85000,  -16.5486E-09,   241.203E-12
C:/ALETube/PressureUpdate/LargeStep/DeformErode/JobErode.odb,Step-1,Increment      2: Step Time =,    20.00,"TUBE-1",         24498,  -2.92791E-03,  -4.05307E-03,       1.86250,NA,NA,"",   5.00000E-03,            0.,       1.86250,  -3.30481E-09,   237.023E-12
C:/ALETube/PressureUpdate/LargeStep/DeformErode/JobErode.odb,Step-1,Increment      2: Step Time =,    20.00,"TUBE-1",         24439,  -3.50742E-03,  -3.56342E-03,       1.86250,NA,NA,"",   4.99998E-03,            0.,       1.86250,  -16.5486E-09,   159.750E-12
C:/ALETube/PressureUpdate/LargeStep/DeformErode/JobErode.odb,Step-1,Increment      2: Step Time =,    20.00,"TUBE-1",         24662,  -2.92791E-03,  -4.05307E-03,         1.875,NA,NA,"",   5.00000E-03,            0.,         1.875,  -3.30481E-09,   103.522E-12
C:/ALETube/PressureUpdate/LargeStep/DeformErode/JobErode.odb,Step-1,Increment      2: Step Time =,    20.00,"TUBE-1",         24603,  -3.50742E-03,  -3.56342E-03,         1.875,NA,NA,"",   4.99998E-03,            0.,         1.875,  -16.5486E-09,   172.312E-12
C:/ALETube/PressureUpdate/LargeStep/DeformErode/JobErode.odb,Step-1,Increment      2: Step Time =,    20.00,"TUBE-1",         24767,  -3.50742E-03,  -3.56342E-03,       1.88750,NA,NA,"",   4.99998E-03,            0.,       1.88750,  -16.5486E-09,   159.755E-12
C:/ALETube/PressureUpdate/LargeStep/DeformErode/JobErode.odb,Step-1,Increment      2: Step Time =,    20.00,"TUBE-1",         24826,  -2.92791E-03,  -4.05307E-03,       1.88750,NA,NA,"",   5.00000E-03,            0.,       1.88750,  -3.30481E-09,   237.037E-12
C:/ALETube/PressureUpdate/LargeStep/DeformErode/JobErode.odb,Step-1,Increment      2: Step Time =,    20.00,"TUBE-1",         24990,  -2.92791E-03,  -4.05307E-03,       1.90000,NA,NA,"",   5.00000E-03,            0.,       1.90000,  -3.30481E-09,   175.103E-12
C:/ALETube/PressureUpdate/LargeStep/DeformErode/JobErode.odb,Step-1,Increment      2: Step Time =,    20.00,"TUBE-1",         24931,  -3.50742E-03,  -3.56342E-03,       1.90000,NA,NA,"",   4.99998E-03,            0.,       1.90000,  -16.5486E-09,   241.201E-12
C:/ALETube/PressureUpdate/LargeStep/DeformErode/JobErode.odb,Step-1,Increment      2: Step Time =,    20.00,"TUBE-1",         25154,  -2.92791E-03,  -4.05307E-03,       1.91250,NA,NA,"",   5.00000E-03,            0.,       1.91250,  -3.30481E-09,   175.022E-12
C:/ALETube/PressureUpdate/LargeStep/DeformErode/JobErode.odb,Step-1,Increment      2: Step Time =,    20.00,"TUBE-1",         25095,  -3.50742E-03,  -3.56342E-03,       1.91250,NA,NA,"",   4.99998E-03,            0.,       1.91250,  -16.5486E-09,   241.212E-12
C:/ALETube/PressureUpdate/LargeStep/DeformErode/JobErode.odb,Step-1,Increment      2: Step Time =,    20.00,"TUBE-1",         25318,  -2.92791E-03,  -4.05307E-03,       1.92500,NA,NA,"",   5.00000E-03,            0.,       1.92500,  -3.30481E-09,   236.810E-12
C:/ALETube/PressureUpdate/LargeStep/DeformErode/JobErode.odb,Step-1,Increment      2: Step Time =,    20.00,"TUBE-1",         25259,  -3.50742E-03,  -3.56342E-03,       1.92500,NA,NA,"",   4.99998E-03,            0.,       1.92500,  -16.5486E-09,   159.687E-12
C:/ALETube/PressureUpdate/LargeStep/DeformErode/JobErode.odb,Step-1,Increment      2: Step Time =,    20.00,"TUBE-1",         25482,  -2.92791E-03,  -4.05307E-03,        1.9375,NA,NA,"",   5.00000E-03,            0.,        1.9375,  -3.30481E-09,   103.591E-12
C:/ALETube/PressureUpdate/LargeStep/DeformErode/JobErode.odb,Step-1,Increment      2: Step Time =,    20.00,"TUBE-1",         25423,  -3.50742E-03,  -3.56342E-03,        1.9375,NA,NA,"",   4.99998E-03,            0.,        1.9375,  -16.5486E-09,   172.302E-12
C:/ALETube/PressureUpdate/LargeStep/DeformErode/JobErode.odb,Step-1,Increment      2: Step Time =,    20.00,"TUBE-1",         25587,  -3.50742E-03,  -3.56342E-03,       1.95000,NA,NA,"",   4.99998E-03,            0.,       1.95000,  -16.5486E-09,   159.493E-12
C:/ALETube/PressureUpdate/LargeStep/DeformErode/JobErode.odb,Step-1,Increment      2: Step Time =,    20.00,"TUBE-1",         25646,  -2.92791E-03,  -4.05307E-03,       1.95000,NA,NA,"",   5.00000E-03,            0.,       1.95000,  -3.30481E-09,   236.101E-12
C:/ALETube/PressureUpdate/LargeStep/DeformErode/JobErode.odb,Step-1,Increment      2: Step Time =,    20.00,"TUBE-1",         25810,  -2.92791E-03,  -4.05307E-03,       1.96250,NA,NA,"",   5.00000E-03,            0.,       1.96250,  -3.30481E-09,   174.113E-12
C:/ALETube/PressureUpdate/LargeStep/DeformErode/JobErode.odb,Step-1,Increment      2: Step Time =,    20.00,"TUBE-1",         25751,  -3.50742E-03,  -3.56342E-03,       1.96250,NA,NA,"",   4.99998E-03,            0.,       1.96250,  -16.5486E-09,   241.659E-12
C:/ALETube/PressureUpdate/LargeStep/DeformErode/JobErode.odb,Step-1,Increment      2: Step Time =,    20.00,"TUBE-1",         25974,  -2.92791E-03,  -4.05307E-03,       1.97500,NA,NA,"",   5.00000E-03,            0.,       1.97500,  -3.30481E-09,   176.837E-12
C:/ALETube/PressureUpdate/LargeStep/DeformErode/JobErode.odb,Step-1,Increment      2: Step Time =,    20.00,"TUBE-1",         25915,  -3.50742E-03,  -3.56342E-03,       1.97500,NA,NA,"",   4.99998E-03,            0.,       1.97500,  -16.5486E-09,   240.895E-12
C:/ALETube/PressureUpdate/LargeStep/DeformErode/JobErode.odb,Step-1,Increment      2: Step Time =,    20.00,"TUBE-1",         26138,  -2.92791E-03,  -4.05307E-03,       1.98750,NA,NA,"",   5.00000E-03,            0.,       1.98750,  -3.30481E-09,   237.475E-12
C:/ALETube/PressureUpdate/LargeStep/DeformErode/JobErode.odb,Step-1,Increment      2: Step Time =,    20.00,"TUBE-1",         26079,  -3.50742E-03,  -3.56342E-03,       1.98750,NA,NA,"",   4.99998E-03,            0.,       1.98750,  -16.5486E-09,   161.021E-12
C:/ALETube/PressureUpdate/LargeStep/DeformErode/JobErode.odb,Step-1,Increment      2: Step Time =,    20.00,"TUBE-1",         26302,  -2.92791E-03,  -4.05307E-03,            2.,NA,NA,"",   5.00000E-03,   433.681E-21,            2.,  -2.52523E-09,   84.5427E-12
C:/ALETube/PressureUpdate/LargeStep/DeformErode/JobErode.odb,Step-1,Increment      2: Step Time =,    20.00,"TUBE-1",         26243,  -3.50742E-03,  -3.56342E-03,            2.,NA,NA,"",   4.99999E-03,            0.,            2.,  -10.7762E-09,   203.971E-12
C:/ALETube/PressureUpdate/LargeStep/DeformErode/JobErode.odb,Step-1,Increment      3: Step Time =,    30.00,"TUBE-1",            62,  -2.92791E-03,  -4.05307E-03,            0.,NA,NA,"",   5.01716E-03,  -433.681E-21,   297.376E-06,   17.1633E-06,       3.16282
C:/ALETube/PressureUpdate/LargeStep/DeformErode/JobErode.odb,Step-1,Increment      3: Step Time =,    30.00,"TUBE-1",             3,  -3.50742E-03,  -3.56342E-03,            0.,NA,NA,"",   5.01715E-03,            0.,   297.375E-06,   17.1484E-06,       3.14464
C:/ALETube/PressureUpdate/LargeStep/DeformErode/JobErode.odb,Step-1,Increment      3: Step Time =,    30.00,"TUBE-1",           226,  -2.92791E-03,  -4.05307E-03,   12.5000E-03,NA,NA,"",   5.01730E-03,            0.,   12.7799E-03,   17.2951E-06,       18.2372
C:/ALETube/PressureUpdate/LargeStep/DeformErode/JobErode.odb,Step-1,Increment      3: Step Time =,    30.00,"TUBE-1",           167,  -3.50742E-03,  -3.56342E-03,   12.5000E-03,NA,NA,"",   5.01727E-03,  -433.681E-21,   12.7800E-03,   17.2686E-06,       18.2203
C:/ALETube/PressureUpdate/LargeStep/DeformErode/JobErode.odb,Step-1,Increment      3: Step Time =,    30.00,"TUBE-1",           331,  -3.50742E-03,  -3.56342E-03,   25.0000E-03,NA,NA,"",   5.01735E-03,            0.,   25.2801E-03,   17.3507E-06,       35.6943
C:/ALETube/PressureUpdate/LargeStep/DeformErode/JobErode.odb,Step-1,Increment      3: Step Time =,    30.00,"TUBE-1",           390,  -2.92791E-03,  -4.05307E-03,   25.0000E-03,NA,NA,"",   5.01738E-03,            0.,   25.2801E-03,   17.3772E-06,       35.7411
C:/ALETube/PressureUpdate/LargeStep/DeformErode/JobErode.odb,Step-1,Increment      3: Step Time =,    30.00,"TUBE-1",           554,  -2.92791E-03,  -4.05307E-03,   37.5000E-03,NA,NA,"",   5.01746E-03,            0.,   37.7800E-03,   17.4615E-06,         53.25
C:/ALETube/PressureUpdate/LargeStep/DeformErode/JobErode.odb,Step-1,Increment      3: Step Time =,    30.00,"TUBE-1",           495,  -3.50742E-03,  -3.56342E-03,   37.5000E-03,NA,NA,"",   5.01743E-03,            0.,   37.7800E-03,   17.4349E-06,       53.1797
C:/ALETube/PressureUpdate/LargeStep/DeformErode/JobErode.odb,Step-1,Increment      3: Step Time =,    30.00,"TUBE-1",           718,  -2.92791E-03,  -4.05307E-03,   50.0000E-03,NA,NA,"",   5.01755E-03,            0.,   50.2800E-03,   17.5472E-06,       71.1257
C:/ALETube/PressureUpdate/LargeStep/DeformErode/JobErode.odb,Step-1,Increment      3: Step Time =,    30.00,"TUBE-1",           659,  -3.50742E-03,  -3.56342E-03,   50.0000E-03,NA,NA,"",   5.01752E-03,            0.,   50.2800E-03,   17.5207E-06,       71.0316
C:/ALETube/PressureUpdate/LargeStep/DeformErode/JobErode.odb,Step-1,Increment      3: Step Time =,    30.00,"TUBE-1",           823,  -3.50742E-03,  -3.56342E-03,      62.5E-03,NA,NA,"",   5.01761E-03,  -433.681E-21,   62.7799E-03,   17.6058E-06,       88.7789
C:/ALETube/PressureUpdate/LargeStep/DeformErode/JobErode.odb,Step-1,Increment      3: Step Time =,    30.00,"TUBE-1",           882,  -2.92791E-03,  -4.05307E-03,      62.5E-03,NA,NA,"",   5.01763E-03,            0.,   62.7799E-03,   17.6323E-06,       88.8962
C:/ALETube/PressureUpdate/LargeStep/DeformErode/JobErode.odb,Step-1,Increment      3: Step Time =,    30.00,"TUBE-1",          1046,  -2.92791E-03,  -4.05307E-03,   75.0000E-03,NA,NA,"",   5.01772E-03,            0.,   75.2797E-03,   17.7175E-06,       106.666
C:/ALETube/PressureUpdate/LargeStep/DeformErode/JobErode.odb,Step-1,Increment      3: Step Time =,    30.00,"TUBE-1",           987,  -3.50742E-03,  -3.56342E-03,   75.0000E-03,NA,NA,"",   5.01769E-03,            0.,   75.2797E-03,   17.6910E-06,       106.526
C:/ALETube/PressureUpdate/LargeStep/DeformErode/JobErode.odb,Step-1,Increment      3: Step Time =,    30.00,"TUBE-1",          1210,  -2.92791E-03,  -4.05307E-03,   87.5000E-03,NA,NA,"",   5.01780E-03,            0.,   87.7796E-03,   17.8028E-06,       124.449
C:/ALETube/PressureUpdate/LargeStep/DeformErode/JobErode.odb,Step-1,Increment      3: Step Time =,    30.00,"TUBE-1",          1151,  -3.50742E-03,  -3.56342E-03,   87.5000E-03,NA,NA,"",   5.01778E-03,   433.681E-21,   87.7796E-03,   17.7762E-06,       124.285
C:/ALETube/PressureUpdate/LargeStep/DeformErode/JobErode.odb,Step-1,Increment      3: Step Time =,    30.00,"TUBE-1",          1374,  -2.92791E-03,  -4.05307E-03,   100.000E-03,NA,NA,"",   5.01789E-03,            0.,   100.279E-03,   17.8880E-06,       142.227
C:/ALETube/PressureUpdate/LargeStep/DeformErode/JobErode.odb,Step-1,Increment      3: Step Time =,    30.00,"TUBE-1",          1315,  -3.50742E-03,  -3.56342E-03,   100.000E-03,NA,NA,"",   5.01786E-03,            0.,   100.279E-03,   17.8614E-06,       142.040
C:/ALETube/PressureUpdate/LargeStep/DeformErode/JobErode.odb,Step-1,Increment      3: Step Time =,    30.00,"TUBE-1",          1538,  -2.92791E-03,  -4.05307E-03,   112.500E-03,NA,NA,"",   5.01797E-03,            0.,   112.779E-03,   17.9732E-06,       160.008
C:/ALETube/PressureUpdate/LargeStep/DeformErode/JobErode.odb,Step-1,Increment      3: Step Time =,    30.00,"TUBE-1",          1479,  -3.50742E-03,  -3.56342E-03,   112.500E-03,NA,NA,"",   5.01795E-03,            0.,   112.779E-03,   17.9466E-06,       159.797
C:/ALETube/PressureUpdate/LargeStep/DeformErode/JobErode.odb,Step-1,Increment      3: Step Time =,    30.00,"TUBE-1",          1643,  -3.50742E-03,  -3.56342E-03,      125.E-03,NA,NA,"",   5.01803E-03,            0.,   125.279E-03,   18.0319E-06,       177.554
C:/ALETube/PressureUpdate/LargeStep/DeformErode/JobErode.odb,Step-1,Increment      3: Step Time =,    30.00,"TUBE-1",          1702,  -2.92791E-03,  -4.05307E-03,      125.E-03,NA,NA,"",   5.01806E-03,            0.,   125.279E-03,   18.0585E-06,       177.788
C:/ALETube/PressureUpdate/LargeStep/DeformErode/JobErode.odb,Step-1,Increment      3: Step Time =,    30.00,"TUBE-1",          1866,  -2.92791E-03,  -4.05307E-03,   137.500E-03,NA,NA,"",   5.01814E-03,   433.681E-21,   137.779E-03,   18.1437E-06,       195.570
C:/ALETube/PressureUpdate/LargeStep/DeformErode/JobErode.odb,Step-1,Increment      3: Step Time =,    30.00,"TUBE-1",          1807,  -3.50742E-03,  -3.56342E-03,   137.500E-03,NA,NA,"",   5.01812E-03,            0.,   137.779E-03,   18.1171E-06,       195.311
C:/ALETube/PressureUpdate/LargeStep/DeformErode/JobErode.odb,Step-1,Increment      3: Step Time =,    30.00,"TUBE-1",          2030,  -2.92791E-03,  -4.05307E-03,   150.000E-03,NA,NA,"",   5.01823E-03,  -433.681E-21,   150.279E-03,   18.2290E-06,       213.351
C:/ALETube/PressureUpdate/LargeStep/DeformErode/JobErode.odb,Step-1,Increment      3: Step Time =,    30.00,"TUBE-1",          1971,  -3.50742E-03,  -3.56342E-03,   150.000E-03,NA,NA,"",   5.01820E-03,            0.,   150.279E-03,   18.2023E-06,       213.070
C:/ALETube/PressureUpdate/LargeStep/DeformErode/JobErode.odb,Step-1,Increment      3: Step Time =,    30.00,"TUBE-1",          2194,  -2.92791E-03,  -4.05307E-03,   162.500E-03,NA,NA,"",   5.01831E-03,            0.,   162.778E-03,   18.3142E-06,       231.133
C:/ALETube/PressureUpdate/LargeStep/DeformErode/JobErode.odb,Step-1,Increment      3: Step Time =,    30.00,"TUBE-1",          2135,  -3.50742E-03,  -3.56342E-03,   162.500E-03,NA,NA,"",   5.01829E-03,            0.,   162.778E-03,   18.2876E-06,       230.828
C:/ALETube/PressureUpdate/LargeStep/DeformErode/JobErode.odb,Step-1,Increment      3: Step Time =,    30.00,"TUBE-1",          2358,  -2.92791E-03,  -4.05307E-03,   175.000E-03,NA,NA,"",   5.01840E-03,            0.,   175.278E-03,   18.3995E-06,       248.916
C:/ALETube/PressureUpdate/LargeStep/DeformErode/JobErode.odb,Step-1,Increment      3: Step Time =,    30.00,"TUBE-1",          2299,  -3.50742E-03,  -3.56342E-03,   175.000E-03,NA,NA,"",   5.01837E-03,            0.,   175.278E-03,   18.3728E-06,       248.588
C:/ALETube/PressureUpdate/LargeStep/DeformErode/JobErode.odb,Step-1,Increment      3: Step Time =,    30.00,"TUBE-1",          2463,  -3.50742E-03,  -3.56342E-03,     187.5E-03,NA,NA,"",   5.01846E-03,            0.,   187.778E-03,   18.4580E-06,       266.347
C:/ALETube/PressureUpdate/LargeStep/DeformErode/JobErode.odb,Step-1,Increment      3: Step Time =,    30.00,"TUBE-1",          2522,  -2.92791E-03,  -4.05307E-03,     187.5E-03,NA,NA,"",   5.01848E-03,            0.,   187.778E-03,   18.4847E-06,       266.700
C:/ALETube/PressureUpdate/LargeStep/DeformErode/JobErode.odb,Step-1,Increment      3: Step Time =,    30.00,"TUBE-1",          2686,  -2.92791E-03,  -4.05307E-03,   200.000E-03,NA,NA,"",   5.01857E-03,            0.,   200.277E-03,   18.5700E-06,       284.483
C:/ALETube/PressureUpdate/LargeStep/DeformErode/JobErode.odb,Step-1,Increment      3: Step Time =,    30.00,"TUBE-1",          2627,  -3.50742E-03,  -3.56342E-03,   200.000E-03,NA,NA,"",   5.01854E-03,            0.,   200.277E-03,   18.5433E-06,       284.108
C:/ALETube/PressureUpdate/LargeStep/DeformErode/JobErode.odb,Step-1,Increment      3: Step Time =,    30.00,"TUBE-1",          2850,  -2.92791E-03,  -4.05307E-03,   212.500E-03,NA,NA,"",   5.01866E-03,            0.,   212.777E-03,   18.6552E-06,       302.268
C:/ALETube/PressureUpdate/LargeStep/DeformErode/JobErode.odb,Step-1,Increment      3: Step Time =,    30.00,"TUBE-1",          2791,  -3.50742E-03,  -3.56342E-03,   212.500E-03,NA,NA,"",   5.01863E-03,            0.,   212.777E-03,   18.6285E-06,       301.869
C:/ALETube/PressureUpdate/LargeStep/DeformErode/JobErode.odb,Step-1,Increment      3: Step Time =,    30.00,"TUBE-1",          3014,  -2.92791E-03,  -4.05307E-03,   225.000E-03,NA,NA,"",   5.01874E-03,  -433.681E-21,   225.277E-03,   18.7405E-06,       320.053
C:/ALETube/PressureUpdate/LargeStep/DeformErode/JobErode.odb,Step-1,Increment      3: Step Time =,    30.00,"TUBE-1",          2955,  -3.50742E-03,  -3.56342E-03,   225.000E-03,NA,NA,"",   5.01871E-03,            0.,   225.277E-03,   18.7138E-06,       319.630
C:/ALETube/PressureUpdate/LargeStep/DeformErode/JobErode.odb,Step-1,Increment      3: Step Time =,    30.00,"TUBE-1",          3178,  -2.92791E-03,  -4.05307E-03,   237.500E-03,NA,NA,"",   5.01883E-03,            0.,   237.776E-03,   18.8258E-06,       337.838
C:/ALETube/PressureUpdate/LargeStep/DeformErode/JobErode.odb,Step-1,Increment      3: Step Time =,    30.00,"TUBE-1",          3119,  -3.50742E-03,  -3.56342E-03,   237.500E-03,NA,NA,"",   5.01880E-03,            0.,   237.776E-03,   18.7990E-06,       337.392
C:/ALETube/PressureUpdate/LargeStep/DeformErode/JobErode.odb,Step-1,Increment      3: Step Time =,    30.00,"TUBE-1",          3283,  -3.50742E-03,  -3.56342E-03,      250.E-03,NA,NA,"",   5.01888E-03,            0.,   250.276E-03,   18.8843E-06,       355.155
C:/ALETube/PressureUpdate/LargeStep/DeformErode/JobErode.odb,Step-1,Increment      3: Step Time =,    30.00,"TUBE-1",          3342,  -2.92791E-03,  -4.05307E-03,      250.E-03,NA,NA,"",   5.01891E-03,            0.,   250.276E-03,   18.9111E-06,       355.624
C:/ALETube/PressureUpdate/LargeStep/DeformErode/JobErode.odb,Step-1,Increment      3: Step Time =,    30.00,"TUBE-1",          3506,  -2.92791E-03,  -4.05307E-03,   262.500E-03,NA,NA,"",   5.01900E-03,            0.,   262.775E-03,   18.9963E-06,       373.410
C:/ALETube/PressureUpdate/LargeStep/DeformErode/JobErode.odb,Step-1,Increment      3: Step Time =,    30.00,"TUBE-1",          3447,  -3.50742E-03,  -3.56342E-03,   262.500E-03,NA,NA,"",   5.01897E-03,            0.,   262.775E-03,   18.9696E-06,       372.917
C:/ALETube/PressureUpdate/LargeStep/DeformErode/JobErode.odb,Step-1,Increment      3: Step Time =,    30.00,"TUBE-1",          3670,  -2.92791E-03,  -4.05307E-03,   275.000E-03,NA,NA,"",   5.01908E-03,            0.,   275.275E-03,   19.0816E-06,       391.197
C:/ALETube/PressureUpdate/LargeStep/DeformErode/JobErode.odb,Step-1,Increment      3: Step Time =,    30.00,"TUBE-1",          3611,  -3.50742E-03,  -3.56342E-03,   275.000E-03,NA,NA,"",   5.01905E-03,   433.681E-21,   275.275E-03,   19.0549E-06,       390.681
C:/ALETube/PressureUpdate/LargeStep/DeformErode/JobErode.odb,Step-1,Increment      3: Step Time =,    30.00,"TUBE-1",          3834,  -2.92791E-03,  -4.05307E-03,   287.500E-03,NA,NA,"",   5.01917E-03,  -433.681E-21,   287.774E-03,   19.1669E-06,       408.985
C:/ALETube/PressureUpdate/LargeStep/DeformErode/JobErode.odb,Step-1,Increment      3: Step Time =,    30.00,"TUBE-1",          3775,  -3.50742E-03,  -3.56342E-03,   287.500E-03,NA,NA,"",   5.01914E-03,            0.,   287.774E-03,   19.1401E-06,       408.445
C:/ALETube/PressureUpdate/LargeStep/DeformErode/JobErode.odb,Step-1,Increment      3: Step Time =,    30.00,"TUBE-1",          3998,  -2.92791E-03,  -4.05307E-03,   300.000E-03,NA,NA,"",   5.01925E-03,   433.681E-21,   300.274E-03,   19.2522E-06,       426.773
C:/ALETube/PressureUpdate/LargeStep/DeformErode/JobErode.odb,Step-1,Increment      3: Step Time =,    30.00,"TUBE-1",          3939,  -3.50742E-03,  -3.56342E-03,   300.000E-03,NA,NA,"",   5.01923E-03,            0.,   300.274E-03,   19.2254E-06,       426.209
C:/ALETube/PressureUpdate/LargeStep/DeformErode/JobErode.odb,Step-1,Increment      3: Step Time =,    30.00,"TUBE-1",          4103,  -3.50742E-03,  -3.56342E-03,     312.5E-03,NA,NA,"",   5.01931E-03,   433.681E-21,   312.773E-03,   19.3107E-06,       443.974
C:/ALETube/PressureUpdate/LargeStep/DeformErode/JobErode.odb,Step-1,Increment      3: Step Time =,    30.00,"TUBE-1",          4162,  -2.92791E-03,  -4.05307E-03,     312.5E-03,NA,NA,"",   5.01934E-03,  -433.681E-21,   312.773E-03,   19.3375E-06,       444.561
C:/ALETube/PressureUpdate/LargeStep/DeformErode/JobErode.odb,Step-1,Increment      3: Step Time =,    30.00,"TUBE-1",          4326,  -2.92791E-03,  -4.05307E-03,   325.000E-03,NA,NA,"",   5.01942E-03,            0.,   325.273E-03,   19.4228E-06,       462.350
C:/ALETube/PressureUpdate/LargeStep/DeformErode/JobErode.odb,Step-1,Increment      3: Step Time =,    30.00,"TUBE-1",          4267,  -3.50742E-03,  -3.56342E-03,   325.000E-03,NA,NA,"",   5.01940E-03,   433.681E-21,   325.273E-03,   19.3960E-06,       461.740
C:/ALETube/PressureUpdate/LargeStep/DeformErode/JobErode.odb,Step-1,Increment      3: Step Time =,    30.00,"TUBE-1",          4490,  -2.92791E-03,  -4.05307E-03,   337.500E-03,NA,NA,"",   5.01951E-03,            0.,   337.772E-03,   19.5081E-06,       480.140
C:/ALETube/PressureUpdate/LargeStep/DeformErode/JobErode.odb,Step-1,Increment      3: Step Time =,    30.00,"TUBE-1",          4431,  -3.50742E-03,  -3.56342E-03,   337.500E-03,NA,NA,"",   5.01948E-03,  -433.681E-21,   337.772E-03,   19.4813E-06,       479.506
C:/ALETube/PressureUpdate/LargeStep/DeformErode/JobErode.odb,Step-1,Increment      3: Step Time =,    30.00,"TUBE-1",          4654,  -2.92791E-03,  -4.05307E-03,   350.000E-03,NA,NA,"",   5.01959E-03,            0.,   350.272E-03,   19.5934E-06,       497.930
C:/ALETube/PressureUpdate/LargeStep/DeformErode/JobErode.odb,Step-1,Increment      3: Step Time =,    30.00,"TUBE-1",          4595,  -3.50742E-03,  -3.56342E-03,   350.000E-03,NA,NA,"",   5.01957E-03,            0.,   350.272E-03,   19.5666E-06,       497.273
C:/ALETube/PressureUpdate/LargeStep/DeformErode/JobErode.odb,Step-1,Increment      3: Step Time =,    30.00,"TUBE-1",          4818,  -2.92791E-03,  -4.05307E-03,   362.500E-03,NA,NA,"",   5.01968E-03,            0.,   362.771E-03,   19.6787E-06,       515.720
C:/ALETube/PressureUpdate/LargeStep/DeformErode/JobErode.odb,Step-1,Increment      3: Step Time =,    30.00,"TUBE-1",          4759,  -3.50742E-03,  -3.56342E-03,   362.500E-03,NA,NA,"",   5.01965E-03,            0.,   362.771E-03,   19.6519E-06,       515.040
C:/ALETube/PressureUpdate/LargeStep/DeformErode/JobErode.odb,Step-1,Increment      3: Step Time =,    30.00,"TUBE-1",          4923,  -3.50742E-03,  -3.56342E-03,      375.E-03,NA,NA,"",   5.01974E-03,   433.681E-21,   375.270E-03,   19.7372E-06,       532.807
C:/ALETube/PressureUpdate/LargeStep/DeformErode/JobErode.odb,Step-1,Increment      3: Step Time =,    30.00,"TUBE-1",          4982,  -2.92791E-03,  -4.05307E-03,      375.E-03,NA,NA,"",   5.01976E-03,   433.681E-21,   375.270E-03,   19.7640E-06,       533.511
C:/ALETube/PressureUpdate/LargeStep/DeformErode/JobErode.odb,Step-1,Increment      3: Step Time =,    30.00,"TUBE-1",          5146,  -2.92791E-03,  -4.05307E-03,   387.500E-03,NA,NA,"",   5.01985E-03,            0.,   387.770E-03,   19.8494E-06,       551.303
C:/ALETube/PressureUpdate/LargeStep/DeformErode/JobErode.odb,Step-1,Increment      3: Step Time =,    30.00,"TUBE-1",          5087,  -3.50742E-03,  -3.56342E-03,   387.500E-03,NA,NA,"",   5.01982E-03,   433.681E-21,   387.770E-03,   19.8225E-06,       550.575
C:/ALETube/PressureUpdate/LargeStep/DeformErode/JobErode.odb,Step-1,Increment      3: Step Time =,    30.00,"TUBE-1",          5310,  -2.92791E-03,  -4.05307E-03,   400.000E-03,NA,NA,"",   5.01993E-03,            0.,   400.269E-03,   19.9347E-06,       569.095
C:/ALETube/PressureUpdate/LargeStep/DeformErode/JobErode.odb,Step-1,Increment      3: Step Time =,    30.00,"TUBE-1",          5251,  -3.50742E-03,  -3.56342E-03,   400.000E-03,NA,NA,"",   5.01991E-03,            0.,   400.269E-03,   19.9078E-06,       568.344
C:/ALETube/PressureUpdate/LargeStep/DeformErode/JobErode.odb,Step-1,Increment      3: Step Time =,    30.00,"TUBE-1",          5474,  -2.92791E-03,  -4.05307E-03,   412.500E-03,NA,NA,"",   5.02002E-03,            0.,   412.768E-03,   20.0200E-06,       586.888
C:/ALETube/PressureUpdate/LargeStep/DeformErode/JobErode.odb,Step-1,Increment      3: Step Time =,    30.00,"TUBE-1",          5415,  -3.50742E-03,  -3.56342E-03,   412.500E-03,NA,NA,"",   5.01999E-03,            0.,   412.768E-03,   19.9931E-06,       586.113
C:/ALETube/PressureUpdate/LargeStep/DeformErode/JobErode.odb,Step-1,Increment      3: Step Time =,    30.00,"TUBE-1",          5638,  -2.92791E-03,  -4.05307E-03,   425.000E-03,NA,NA,"",   5.02011E-03,            0.,   425.267E-03,   20.1053E-06,       604.681
C:/ALETube/PressureUpdate/LargeStep/DeformErode/JobErode.odb,Step-1,Increment      3: Step Time =,    30.00,"TUBE-1",          5579,  -3.50742E-03,  -3.56342E-03,   425.000E-03,NA,NA,"",   5.02008E-03,            0.,   425.267E-03,   20.0784E-06,       603.883
C:/ALETube/PressureUpdate/LargeStep/DeformErode/JobErode.odb,Step-1,Increment      3: Step Time =,    30.00,"TUBE-1",          5743,  -3.50742E-03,  -3.56342E-03,     437.5E-03,NA,NA,"",   5.02016E-03,            0.,   437.767E-03,   20.1637E-06,       621.653
C:/ALETube/PressureUpdate/LargeStep/DeformErode/JobErode.odb,Step-1,Increment      3: Step Time =,    30.00,"TUBE-1",          5802,  -2.92791E-03,  -4.05307E-03,     437.5E-03,NA,NA,"",   5.02019E-03,  -433.681E-21,   437.767E-03,   20.1907E-06,       622.474
C:/ALETube/PressureUpdate/LargeStep/DeformErode/JobErode.odb,Step-1,Increment      3: Step Time =,    30.00,"TUBE-1",          5966,  -2.92791E-03,  -4.05307E-03,   450.000E-03,NA,NA,"",   5.02028E-03,   433.681E-21,   450.266E-03,   20.2760E-06,       640.269
C:/ALETube/PressureUpdate/LargeStep/DeformErode/JobErode.odb,Step-1,Increment      3: Step Time =,    30.00,"TUBE-1",          5907,  -3.50742E-03,  -3.56342E-03,   450.000E-03,NA,NA,"",   5.02025E-03,            0.,   450.266E-03,   20.2491E-06,       639.423
C:/ALETube/PressureUpdate/LargeStep/DeformErode/JobErode.odb,Step-1,Increment      3: Step Time =,    30.00,"TUBE-1",          6130,  -2.92791E-03,  -4.05307E-03,   462.500E-03,NA,NA,"",   5.02036E-03,            0.,   462.765E-03,   20.3613E-06,       658.063
C:/ALETube/PressureUpdate/LargeStep/DeformErode/JobErode.odb,Step-1,Increment      3: Step Time =,    30.00,"TUBE-1",          6071,  -3.50742E-03,  -3.56342E-03,   462.500E-03,NA,NA,"",   5.02033E-03,  -433.681E-21,   462.765E-03,   20.3344E-06,       657.195
C:/ALETube/PressureUpdate/LargeStep/DeformErode/JobErode.odb,Step-1,Increment      3: Step Time =,    30.00,"TUBE-1",          6294,  -2.92791E-03,  -4.05307E-03,   475.000E-03,NA,NA,"",   5.02045E-03,  -433.681E-21,   475.264E-03,   20.4467E-06,       675.858
C:/ALETube/PressureUpdate/LargeStep/DeformErode/JobErode.odb,Step-1,Increment      3: Step Time =,    30.00,"TUBE-1",          6235,  -3.50742E-03,  -3.56342E-03,   475.000E-03,NA,NA,"",   5.02042E-03,            0.,   475.264E-03,   20.4197E-06,       674.966
C:/ALETube/PressureUpdate/LargeStep/DeformErode/JobErode.odb,Step-1,Increment      3: Step Time =,    30.00,"TUBE-1",          6458,  -2.92791E-03,  -4.05307E-03,   487.500E-03,NA,NA,"",   5.02053E-03,            0.,   487.763E-03,   20.5320E-06,       693.654
C:/ALETube/PressureUpdate/LargeStep/DeformErode/JobErode.odb,Step-1,Increment      3: Step Time =,    30.00,"TUBE-1",          6399,  -3.50742E-03,  -3.56342E-03,   487.500E-03,NA,NA,"",   5.02050E-03,  -433.681E-21,   487.763E-03,   20.5051E-06,       692.739
C:/ALETube/PressureUpdate/LargeStep/DeformErode/JobErode.odb,Step-1,Increment      3: Step Time =,    30.00,"TUBE-1",          6563,  -3.50742E-03,  -3.56342E-03,      500.E-03,NA,NA,"",   5.02059E-03,   433.681E-21,   500.263E-03,   20.5904E-06,       710.511
C:/ALETube/PressureUpdate/LargeStep/DeformErode/JobErode.odb,Step-1,Increment      3: Step Time =,    30.00,"TUBE-1",          6622,  -2.92791E-03,  -4.05307E-03,      500.E-03,NA,NA,"",   5.02062E-03,  -433.681E-21,   500.263E-03,   20.6174E-06,       711.450
C:/ALETube/PressureUpdate/LargeStep/DeformErode/JobErode.odb,Step-1,Increment      3: Step Time =,    30.00,"TUBE-1",          6786,  -2.92791E-03,  -4.05307E-03,   512.500E-03,NA,NA,"",   5.02070E-03,   433.681E-21,   512.762E-03,   20.7028E-06,       729.247
C:/ALETube/PressureUpdate/LargeStep/DeformErode/JobErode.odb,Step-1,Increment      3: Step Time =,    30.00,"TUBE-1",          6727,  -3.50742E-03,  -3.56342E-03,   512.500E-03,NA,NA,"",   5.02068E-03,            0.,   512.762E-03,   20.6757E-06,       728.285
C:/ALETube/PressureUpdate/LargeStep/DeformErode/JobErode.odb,Step-1,Increment      3: Step Time =,    30.00,"TUBE-1",          6950,  -2.92791E-03,  -4.05307E-03,   525.000E-03,NA,NA,"",   5.02079E-03,            0.,   525.261E-03,   20.7881E-06,       747.044
C:/ALETube/PressureUpdate/LargeStep/DeformErode/JobErode.odb,Step-1,Increment      3: Step Time =,    30.00,"TUBE-1",          6891,  -3.50742E-03,  -3.56342E-03,   525.000E-03,NA,NA,"",   5.02076E-03,            0.,   525.261E-03,   20.7611E-06,       746.058
C:/ALETube/PressureUpdate/LargeStep/DeformErode/JobErode.odb,Step-1,Increment      3: Step Time =,    30.00,"TUBE-1",          7114,  -2.92791E-03,  -4.05307E-03,   537.500E-03,NA,NA,"",   5.02087E-03,            0.,   537.760E-03,   20.8735E-06,       764.842
C:/ALETube/PressureUpdate/LargeStep/DeformErode/JobErode.odb,Step-1,Increment      3: Step Time =,    30.00,"TUBE-1",          7055,  -3.50742E-03,  -3.56342E-03,   537.500E-03,NA,NA,"",   5.02085E-03,            0.,   537.760E-03,   20.8465E-06,       763.833
C:/ALETube/PressureUpdate/LargeStep/DeformErode/JobErode.odb,Step-1,Increment      3: Step Time =,    30.00,"TUBE-1",          7278,  -2.92791E-03,  -4.05307E-03,   550.000E-03,NA,NA,"",   5.02096E-03,            0.,   550.259E-03,   20.9589E-06,       782.640
C:/ALETube/PressureUpdate/LargeStep/DeformErode/JobErode.odb,Step-1,Increment      3: Step Time =,    30.00,"TUBE-1",          7219,  -3.50742E-03,  -3.56342E-03,   550.000E-03,NA,NA,"",   5.02093E-03,  -433.681E-21,   550.259E-03,   20.9318E-06,       781.607
C:/ALETube/PressureUpdate/LargeStep/DeformErode/JobErode.odb,Step-1,Increment      3: Step Time =,    30.00,"TUBE-1",          7383,  -3.50742E-03,  -3.56342E-03,     562.5E-03,NA,NA,"",   5.02102E-03,            0.,   562.758E-03,   21.0172E-06,       799.383
C:/ALETube/PressureUpdate/LargeStep/DeformErode/JobErode.odb,Step-1,Increment      3: Step Time =,    30.00,"TUBE-1",          7442,  -2.92791E-03,  -4.05307E-03,     562.5E-03,NA,NA,"",   5.02104E-03,   433.681E-21,   562.758E-03,   21.0442E-06,       800.439
C:/ALETube/PressureUpdate/LargeStep/DeformErode/JobErode.odb,Step-1,Increment      3: Step Time =,    30.00,"TUBE-1",          7606,  -2.92791E-03,  -4.05307E-03,   575.000E-03,NA,NA,"",   5.02113E-03,            0.,   575.257E-03,   21.1296E-06,       818.238
C:/ALETube/PressureUpdate/LargeStep/DeformErode/JobErode.odb,Step-1,Increment      3: Step Time =,    30.00,"TUBE-1",          7547,  -3.50742E-03,  -3.56342E-03,   575.000E-03,NA,NA,"",   5.02110E-03,            0.,   575.257E-03,   21.1025E-06,       817.158
C:/ALETube/PressureUpdate/LargeStep/DeformErode/JobErode.odb,Step-1,Increment      3: Step Time =,    30.00,"TUBE-1",          7770,  -2.92791E-03,  -4.05307E-03,   587.500E-03,NA,NA,"",   5.02121E-03,            0.,   587.756E-03,   21.2150E-06,       836.038
C:/ALETube/PressureUpdate/LargeStep/DeformErode/JobErode.odb,Step-1,Increment      3: Step Time =,    30.00,"TUBE-1",          7711,  -3.50742E-03,  -3.56342E-03,   587.500E-03,NA,NA,"",   5.02119E-03,  -433.681E-21,   587.756E-03,   21.1879E-06,       834.935
C:/ALETube/PressureUpdate/LargeStep/DeformErode/JobErode.odb,Step-1,Increment      3: Step Time =,    30.00,"TUBE-1",          7934,  -2.92791E-03,  -4.05307E-03,   600.000E-03,NA,NA,"",   5.02130E-03,  -433.681E-21,   600.255E-03,   21.3004E-06,       853.839
C:/ALETube/PressureUpdate/LargeStep/DeformErode/JobErode.odb,Step-1,Increment      3: Step Time =,    30.00,"TUBE-1",          7875,  -3.50742E-03,  -3.56342E-03,   600.000E-03,NA,NA,"",   5.02127E-03,            0.,   600.255E-03,   21.2733E-06,       852.712
C:/ALETube/PressureUpdate/LargeStep/DeformErode/JobErode.odb,Step-1,Increment      3: Step Time =,    30.00,"TUBE-1",          8098,  -2.92791E-03,  -4.05307E-03,   612.500E-03,NA,NA,"",   5.02139E-03,            0.,   612.754E-03,   21.3858E-06,       871.639
C:/ALETube/PressureUpdate/LargeStep/DeformErode/JobErode.odb,Step-1,Increment      3: Step Time =,    30.00,"TUBE-1",          8039,  -3.50742E-03,  -3.56342E-03,   612.500E-03,NA,NA,"",   5.02136E-03,            0.,   612.754E-03,   21.3587E-06,       870.489
C:/ALETube/PressureUpdate/LargeStep/DeformErode/JobErode.odb,Step-1,Increment      3: Step Time =,    30.00,"TUBE-1",          8203,  -3.50742E-03,  -3.56342E-03,      625.E-03,NA,NA,"",   5.02144E-03,            0.,   625.253E-03,   21.4440E-06,       888.267
C:/ALETube/PressureUpdate/LargeStep/DeformErode/JobErode.odb,Step-1,Increment      3: Step Time =,    30.00,"TUBE-1",          8262,  -2.92791E-03,  -4.05307E-03,      625.E-03,NA,NA,"",   5.02147E-03,  -867.362E-21,   625.253E-03,   21.4712E-06,       889.441
C:/ALETube/PressureUpdate/LargeStep/DeformErode/JobErode.odb,Step-1,Increment      3: Step Time =,    30.00,"TUBE-1",          8426,  -2.92791E-03,  -4.05307E-03,   637.500E-03,NA,NA,"",   5.02156E-03,  -433.681E-21,   637.752E-03,   21.5566E-06,       907.243
C:/ALETube/PressureUpdate/LargeStep/DeformErode/JobErode.odb,Step-1,Increment      3: Step Time =,    30.00,"TUBE-1",          8367,  -3.50742E-03,  -3.56342E-03,   637.500E-03,NA,NA,"",   5.02153E-03,            0.,   637.752E-03,   21.5294E-06,       906.045
C:/ALETube/PressureUpdate/LargeStep/DeformErode/JobErode.odb,Step-1,Increment      3: Step Time =,    30.00,"TUBE-1",          8590,  -2.92791E-03,  -4.05307E-03,   650.000E-03,NA,NA,"",   5.02164E-03,  -433.681E-21,   650.250E-03,   21.6420E-06,       925.045
C:/ALETube/PressureUpdate/LargeStep/DeformErode/JobErode.odb,Step-1,Increment      3: Step Time =,    30.00,"TUBE-1",          8531,  -3.50742E-03,  -3.56342E-03,   650.000E-03,NA,NA,"",   5.02161E-03,  -433.681E-21,   650.250E-03,   21.6148E-06,       923.824
C:/ALETube/PressureUpdate/LargeStep/DeformErode/JobErode.odb,Step-1,Increment      3: Step Time =,    30.00,"TUBE-1",          8754,  -2.92791E-03,  -4.05307E-03,   662.500E-03,NA,NA,"",   5.02173E-03,   433.681E-21,   662.749E-03,   21.7274E-06,       942.848
C:/ALETube/PressureUpdate/LargeStep/DeformErode/JobErode.odb,Step-1,Increment      3: Step Time =,    30.00,"TUBE-1",          8695,  -3.50742E-03,  -3.56342E-03,   662.500E-03,NA,NA,"",   5.02170E-03,            0.,   662.749E-03,   21.7002E-06,       941.604
C:/ALETube/PressureUpdate/LargeStep/DeformErode/JobErode.odb,Step-1,Increment      3: Step Time =,    30.00,"TUBE-1",          8918,  -2.92791E-03,  -4.05307E-03,   675.000E-03,NA,NA,"",   5.02181E-03,  -433.681E-21,   675.248E-03,   21.8128E-06,       960.651
C:/ALETube/PressureUpdate/LargeStep/DeformErode/JobErode.odb,Step-1,Increment      3: Step Time =,    30.00,"TUBE-1",          8859,  -3.50742E-03,  -3.56342E-03,   675.000E-03,NA,NA,"",   5.02179E-03,            0.,   675.248E-03,   21.7856E-06,       959.384
C:/ALETube/PressureUpdate/LargeStep/DeformErode/JobErode.odb,Step-1,Increment      3: Step Time =,    30.00,"TUBE-1",          9023,  -3.50742E-03,  -3.56342E-03,     687.5E-03,NA,NA,"",   5.02187E-03,  -433.681E-21,   687.747E-03,   21.8710E-06,       977.164
C:/ALETube/PressureUpdate/LargeStep/DeformErode/JobErode.odb,Step-1,Increment      3: Step Time =,    30.00,"TUBE-1",          9082,  -2.92791E-03,  -4.05307E-03,     687.5E-03,NA,NA,"",   5.02190E-03,            0.,   687.747E-03,   21.8982E-06,       978.455
C:/ALETube/PressureUpdate/LargeStep/DeformErode/JobErode.odb,Step-1,Increment      3: Step Time =,    30.00,"TUBE-1",          9246,  -2.92791E-03,  -4.05307E-03,   700.000E-03,NA,NA,"",   5.02198E-03,            0.,   700.246E-03,   21.9836E-06,       996.260
C:/ALETube/PressureUpdate/LargeStep/DeformErode/JobErode.odb,Step-1,Increment      3: Step Time =,    30.00,"TUBE-1",          9187,  -3.50742E-03,  -3.56342E-03,   700.000E-03,NA,NA,"",   5.02196E-03,   433.681E-21,   700.246E-03,   21.9564E-06,       994.945
C:/ALETube/PressureUpdate/LargeStep/DeformErode/JobErode.odb,Step-1,Increment      3: Step Time =,    30.00,"TUBE-1",          9410,  -2.92791E-03,  -4.05307E-03,   712.500E-03,NA,NA,"",   5.02207E-03,            0.,   712.745E-03,   22.0690E-06,   1.01406E+03
C:/ALETube/PressureUpdate/LargeStep/DeformErode/JobErode.odb,Step-1,Increment      3: Step Time =,    30.00,"TUBE-1",          9351,  -3.50742E-03,  -3.56342E-03,   712.500E-03,NA,NA,"",   5.02204E-03,  -433.681E-21,   712.745E-03,   22.0418E-06,   1.01273E+03
C:/ALETube/PressureUpdate/LargeStep/DeformErode/JobErode.odb,Step-1,Increment      3: Step Time =,    30.00,"TUBE-1",          9574,  -2.92791E-03,  -4.05307E-03,   725.000E-03,NA,NA,"",   5.02215E-03,            0.,   725.243E-03,   22.1545E-06,   1.03187E+03
C:/ALETube/PressureUpdate/LargeStep/DeformErode/JobErode.odb,Step-1,Increment      3: Step Time =,    30.00,"TUBE-1",          9515,  -3.50742E-03,  -3.56342E-03,   725.000E-03,NA,NA,"",   5.02213E-03,            0.,   725.243E-03,   22.1272E-06,   1.03051E+03
C:/ALETube/PressureUpdate/LargeStep/DeformErode/JobErode.odb,Step-1,Increment      3: Step Time =,    30.00,"TUBE-1",          9738,  -2.92791E-03,  -4.05307E-03,   737.500E-03,NA,NA,"",   5.02224E-03,  -433.681E-21,   737.742E-03,   22.2399E-06,   1.04968E+03
C:/ALETube/PressureUpdate/LargeStep/DeformErode/JobErode.odb,Step-1,Increment      3: Step Time =,    30.00,"TUBE-1",          9679,  -3.50742E-03,  -3.56342E-03,   737.500E-03,NA,NA,"",   5.02221E-03,            0.,   737.742E-03,   22.2127E-06,   1.04829E+03
C:/ALETube/PressureUpdate/LargeStep/DeformErode/JobErode.odb,Step-1,Increment      3: Step Time =,    30.00,"TUBE-1",          9843,  -3.50742E-03,  -3.56342E-03,      750.E-03,NA,NA,"",   5.02230E-03,            0.,   750.241E-03,   22.2981E-06,   1.06607E+03
C:/ALETube/PressureUpdate/LargeStep/DeformErode/JobErode.odb,Step-1,Increment      3: Step Time =,    30.00,"TUBE-1",          9902,  -2.92791E-03,  -4.05307E-03,      750.E-03,NA,NA,"",   5.02233E-03,            0.,   750.241E-03,   22.3253E-06,   1.06748E+03
C:/ALETube/PressureUpdate/LargeStep/DeformErode/JobErode.odb,Step-1,Increment      3: Step Time =,    30.00,"TUBE-1",         10066,  -2.92791E-03,  -4.05307E-03,   762.500E-03,NA,NA,"",   5.02241E-03,  -433.681E-21,   762.739E-03,   22.4108E-06,   1.08529E+03
C:/ALETube/PressureUpdate/LargeStep/DeformErode/JobErode.odb,Step-1,Increment      3: Step Time =,    30.00,"TUBE-1",         10007,  -3.50742E-03,  -3.56342E-03,   762.500E-03,NA,NA,"",   5.02238E-03,            0.,   762.739E-03,   22.3835E-06,   1.08386E+03
C:/ALETube/PressureUpdate/LargeStep/DeformErode/JobErode.odb,Step-1,Increment      3: Step Time =,    30.00,"TUBE-1",         10230,  -2.92791E-03,  -4.05307E-03,   775.000E-03,NA,NA,"",   5.02250E-03,            0.,   775.238E-03,   22.4962E-06,   1.10310E+03
C:/ALETube/PressureUpdate/LargeStep/DeformErode/JobErode.odb,Step-1,Increment      3: Step Time =,    30.00,"TUBE-1",         10171,  -3.50742E-03,  -3.56342E-03,   775.000E-03,NA,NA,"",   5.02247E-03,  -433.681E-21,   775.238E-03,   22.4689E-06,   1.10164E+03
C:/ALETube/PressureUpdate/LargeStep/DeformErode/JobErode.odb,Step-1,Increment      3: Step Time =,    30.00,"TUBE-1",         10394,  -2.92791E-03,  -4.05307E-03,   787.500E-03,NA,NA,"",   5.02258E-03,            0.,   787.737E-03,   22.5817E-06,   1.12090E+03
C:/ALETube/PressureUpdate/LargeStep/DeformErode/JobErode.odb,Step-1,Increment      3: Step Time =,    30.00,"TUBE-1",         10335,  -3.50742E-03,  -3.56342E-03,   787.500E-03,NA,NA,"",   5.02255E-03,            0.,   787.737E-03,   22.5544E-06,   1.11943E+03
C:/ALETube/PressureUpdate/LargeStep/DeformErode/JobErode.odb,Step-1,Increment      3: Step Time =,    30.00,"TUBE-1",         10558,  -2.92791E-03,  -4.05307E-03,   800.000E-03,NA,NA,"",   5.02267E-03,            0.,   800.235E-03,   22.6671E-06,   1.13871E+03
C:/ALETube/PressureUpdate/LargeStep/DeformErode/JobErode.odb,Step-1,Increment      3: Step Time =,    30.00,"TUBE-1",         10499,  -3.50742E-03,  -3.56342E-03,   800.000E-03,NA,NA,"",   5.02264E-03,            0.,   800.235E-03,   22.6398E-06,   1.13721E+03
C:/ALETube/PressureUpdate/LargeStep/DeformErode/JobErode.odb,Step-1,Increment      3: Step Time =,    30.00,"TUBE-1",         10663,  -3.50742E-03,  -3.56342E-03,     812.5E-03,NA,NA,"",   5.02273E-03,            0.,   812.734E-03,   22.7252E-06,   1.15500E+03
C:/ALETube/PressureUpdate/LargeStep/DeformErode/JobErode.odb,Step-1,Increment      3: Step Time =,    30.00,"TUBE-1",         10722,  -2.92791E-03,  -4.05307E-03,     812.5E-03,NA,NA,"",   5.02275E-03,            0.,   812.734E-03,   22.7526E-06,   1.15652E+03
C:/ALETube/PressureUpdate/LargeStep/DeformErode/JobErode.odb,Step-1,Increment      3: Step Time =,    30.00,"TUBE-1",         10886,  -2.92791E-03,  -4.05307E-03,   825.000E-03,NA,NA,"",   5.02284E-03,            0.,   825.232E-03,   22.8380E-06,   1.17433E+03
C:/ALETube/PressureUpdate/LargeStep/DeformErode/JobErode.odb,Step-1,Increment      3: Step Time =,    30.00,"TUBE-1",         10827,  -3.50742E-03,  -3.56342E-03,   825.000E-03,NA,NA,"",   5.02281E-03,            0.,   825.232E-03,   22.8107E-06,   1.17278E+03
C:/ALETube/PressureUpdate/LargeStep/DeformErode/JobErode.odb,Step-1,Increment      3: Step Time =,    30.00,"TUBE-1",         11050,  -2.92791E-03,  -4.05307E-03,   837.500E-03,NA,NA,"",   5.02292E-03,            0.,   837.731E-03,   22.9235E-06,   1.19214E+03
C:/ALETube/PressureUpdate/LargeStep/DeformErode/JobErode.odb,Step-1,Increment      3: Step Time =,    30.00,"TUBE-1",         10991,  -3.50742E-03,  -3.56342E-03,   837.500E-03,NA,NA,"",   5.02290E-03,  -433.681E-21,   837.731E-03,   22.8961E-06,   1.19057E+03
C:/ALETube/PressureUpdate/LargeStep/DeformErode/JobErode.odb,Step-1,Increment      3: Step Time =,    30.00,"TUBE-1",         11214,  -2.92791E-03,  -4.05307E-03,   850.000E-03,NA,NA,"",   5.02301E-03,  -433.681E-21,   850.230E-03,   23.0089E-06,   1.20995E+03
C:/ALETube/PressureUpdate/LargeStep/DeformErode/JobErode.odb,Step-1,Increment      3: Step Time =,    30.00,"TUBE-1",         11155,  -3.50742E-03,  -3.56342E-03,   850.000E-03,NA,NA,"",   5.02298E-03,  -433.681E-21,   850.230E-03,   22.9816E-06,   1.20836E+03
C:/ALETube/PressureUpdate/LargeStep/DeformErode/JobErode.odb,Step-1,Increment      3: Step Time =,    30.00,"TUBE-1",         11378,  -2.92791E-03,  -4.05307E-03,   862.500E-03,NA,NA,"",   5.02309E-03,  -433.681E-21,   862.728E-03,   23.0944E-06,   1.22776E+03
C:/ALETube/PressureUpdate/LargeStep/DeformErode/JobErode.odb,Step-1,Increment      3: Step Time =,    30.00,"TUBE-1",         11319,  -3.50742E-03,  -3.56342E-03,   862.500E-03,NA,NA,"",   5.02307E-03,  -433.681E-21,   862.728E-03,   23.0670E-06,   1.22614E+03
C:/ALETube/PressureUpdate/LargeStep/DeformErode/JobErode.odb,Step-1,Increment      3: Step Time =,    30.00,"TUBE-1",         11483,  -3.50742E-03,  -3.56342E-03,      875.E-03,NA,NA,"",   5.02315E-03,            0.,   875.226E-03,   23.1525E-06,   1.24393E+03
C:/ALETube/PressureUpdate/LargeStep/DeformErode/JobErode.odb,Step-1,Increment      3: Step Time =,    30.00,"TUBE-1",         11542,  -2.92791E-03,  -4.05307E-03,      875.E-03,NA,NA,"",   5.02318E-03,   433.681E-21,   875.226E-03,   23.1799E-06,   1.24558E+03
C:/ALETube/PressureUpdate/LargeStep/DeformErode/JobErode.odb,Step-1,Increment      3: Step Time =,    30.00,"TUBE-1",         11706,  -2.92791E-03,  -4.05307E-03,   887.500E-03,NA,NA,"",   5.02327E-03,  -433.681E-21,   887.725E-03,   23.2654E-06,   1.26339E+03
C:/ALETube/PressureUpdate/LargeStep/DeformErode/JobErode.odb,Step-1,Increment      3: Step Time =,    30.00,"TUBE-1",         11647,  -3.50742E-03,  -3.56342E-03,   887.500E-03,NA,NA,"",   5.02324E-03,            0.,   887.725E-03,   23.2380E-06,   1.26172E+03
C:/ALETube/PressureUpdate/LargeStep/DeformErode/JobErode.odb,Step-1,Increment      3: Step Time =,    30.00,"TUBE-1",         11870,  -2.92791E-03,  -4.05307E-03,   900.000E-03,NA,NA,"",   5.02335E-03,            0.,   900.223E-03,   23.3508E-06,   1.28120E+03
C:/ALETube/PressureUpdate/LargeStep/DeformErode/JobErode.odb,Step-1,Increment      3: Step Time =,    30.00,"TUBE-1",         11811,  -3.50742E-03,  -3.56342E-03,   900.000E-03,NA,NA,"",   5.02332E-03,            0.,   900.223E-03,   23.3234E-06,   1.27951E+03
C:/ALETube/PressureUpdate/LargeStep/DeformErode/JobErode.odb,Step-1,Increment      3: Step Time =,    30.00,"TUBE-1",         12034,  -2.92791E-03,  -4.05307E-03,   912.500E-03,NA,NA,"",   5.02344E-03,   272.682E-12,   912.722E-03,   23.4363E-06,   1.29901E+03
C:/ALETube/PressureUpdate/LargeStep/DeformErode/JobErode.odb,Step-1,Increment      3: Step Time =,    30.00,"TUBE-1",         11975,  -3.50742E-03,  -3.56342E-03,   912.500E-03,NA,NA,"",   5.02341E-03,  -433.681E-21,   912.722E-03,   23.4089E-06,   1.29730E+03
C:/ALETube/PressureUpdate/LargeStep/DeformErode/JobErode.odb,Step-1,Increment      3: Step Time =,    30.00,"TUBE-1",         12198,  -2.92791E-03,  -4.05307E-03,   925.000E-03,NA,NA,"",   5.02352E-03,            0.,   925.220E-03,   23.5218E-06,   1.31683E+03
C:/ALETube/PressureUpdate/LargeStep/DeformErode/JobErode.odb,Step-1,Increment      3: Step Time =,    30.00,"TUBE-1",         12139,  -3.50742E-03,  -3.56342E-03,   925.000E-03,NA,NA,"",   5.02349E-03,            0.,   925.220E-03,   23.4944E-06,   1.31509E+03
C:/ALETube/PressureUpdate/LargeStep/DeformErode/JobErode.odb,Step-1,Increment      3: Step Time =,    30.00,"TUBE-1",         12303,  -3.50742E-03,  -3.56342E-03,     937.5E-03,NA,NA,"",   5.02358E-03,            0.,   937.719E-03,   23.5799E-06,   1.33288E+03
C:/ALETube/PressureUpdate/LargeStep/DeformErode/JobErode.odb,Step-1,Increment      3: Step Time =,    30.00,"TUBE-1",         12362,  -2.92791E-03,  -4.05307E-03,     937.5E-03,NA,NA,"",   5.02361E-03,            0.,   937.719E-03,   23.6073E-06,   1.33464E+03
C:/ALETube/PressureUpdate/LargeStep/DeformErode/JobErode.odb,Step-1,Increment      3: Step Time =,    30.00,"TUBE-1",         12526,  -2.92791E-03,  -4.05307E-03,   950.000E-03,NA,NA,"",   5.02369E-03,            0.,   950.217E-03,   23.6928E-06,   1.35246E+03
C:/ALETube/PressureUpdate/LargeStep/DeformErode/JobErode.odb,Step-1,Increment      3: Step Time =,    30.00,"TUBE-1",         12467,  -3.50742E-03,  -3.56342E-03,   950.000E-03,NA,NA,"",   5.02367E-03,            0.,   950.217E-03,   23.6653E-06,   1.35067E+03
C:/ALETube/PressureUpdate/LargeStep/DeformErode/JobErode.odb,Step-1,Increment      3: Step Time =,    30.00,"TUBE-1",         12690,  -2.92791E-03,  -4.05307E-03,   962.500E-03,NA,NA,"",   5.02378E-03,            0.,   962.715E-03,   23.7783E-06,   1.37027E+03
C:/ALETube/PressureUpdate/LargeStep/DeformErode/JobErode.odb,Step-1,Increment      3: Step Time =,    30.00,"TUBE-1",         12631,  -3.50742E-03,  -3.56342E-03,   962.500E-03,NA,NA,"",   5.02375E-03,   433.681E-21,   962.715E-03,   23.7508E-06,   1.36846E+03
C:/ALETube/PressureUpdate/LargeStep/DeformErode/JobErode.odb,Step-1,Increment      3: Step Time =,    30.00,"TUBE-1",         12854,  -2.92791E-03,  -4.05307E-03,   975.000E-03,NA,NA,"",   5.02386E-03,  -433.681E-21,   975.214E-03,   23.8638E-06,   1.38809E+03
C:/ALETube/PressureUpdate/LargeStep/DeformErode/JobErode.odb,Step-1,Increment      3: Step Time =,    30.00,"TUBE-1",         12795,  -3.50742E-03,  -3.56342E-03,   975.000E-03,NA,NA,"",   5.02384E-03,   433.681E-21,   975.214E-03,   23.8363E-06,   1.38626E+03
C:/ALETube/PressureUpdate/LargeStep/DeformErode/JobErode.odb,Step-1,Increment      3: Step Time =,    30.00,"TUBE-1",         13018,  -2.92791E-03,  -4.05307E-03,   987.500E-03,NA,NA,"",   5.02395E-03,  -433.681E-21,   987.712E-03,   23.9493E-06,   1.40590E+03
C:/ALETube/PressureUpdate/LargeStep/DeformErode/JobErode.odb,Step-1,Increment      3: Step Time =,    30.00,"TUBE-1",         12959,  -3.50742E-03,  -3.56342E-03,   987.500E-03,NA,NA,"",   5.02392E-03,            0.,   987.712E-03,   23.9218E-06,   1.40405E+03
C:/ALETube/PressureUpdate/LargeStep/DeformErode/JobErode.odb,Step-1,Increment      3: Step Time =,    30.00,"TUBE-1",         13123,  -3.50742E-03,  -3.56342E-03,            1.,NA,NA,"",   5.02401E-03,            0.,       1.00021,   24.0073E-06,   1.42184E+03
C:/ALETube/PressureUpdate/LargeStep/DeformErode/JobErode.odb,Step-1,Increment      3: Step Time =,    30.00,"TUBE-1",         13182,  -2.92791E-03,  -4.05307E-03,            1.,NA,NA,"",   5.02403E-03,            0.,       1.00021,   24.0348E-06,   1.42372E+03
C:/ALETube/PressureUpdate/LargeStep/DeformErode/JobErode.odb,Step-1,Increment      3: Step Time =,    30.00,"TUBE-1",         13346,  -2.92791E-03,  -4.05307E-03,       1.01250,NA,NA,"",   5.02412E-03,            0.,       1.01271,   24.1204E-06,   1.44154E+03
C:/ALETube/PressureUpdate/LargeStep/DeformErode/JobErode.odb,Step-1,Increment      3: Step Time =,    30.00,"TUBE-1",         13287,  -3.50742E-03,  -3.56342E-03,       1.01250,NA,NA,"",   5.02409E-03,            0.,       1.01271,   24.0928E-06,   1.43964E+03
C:/ALETube/PressureUpdate/LargeStep/DeformErode/JobErode.odb,Step-1,Increment      3: Step Time =,    30.00,"TUBE-1",         13510,  -2.92791E-03,  -4.05307E-03,       1.02500,NA,NA,"",   5.02421E-03,   433.681E-21,       1.02521,   24.2059E-06,   1.45935E+03
C:/ALETube/PressureUpdate/LargeStep/DeformErode/JobErode.odb,Step-1,Increment      3: Step Time =,    30.00,"TUBE-1",         13451,  -3.50742E-03,  -3.56342E-03,       1.02500,NA,NA,"",   5.02418E-03,            0.,       1.02521,   24.1783E-06,   1.45743E+03
C:/ALETube/PressureUpdate/LargeStep/DeformErode/JobErode.odb,Step-1,Increment      3: Step Time =,    30.00,"TUBE-1",         13615,  -3.50742E-03,  -3.56342E-03,       1.03750,NA,NA,"",   5.02426E-03,            0.,       1.03770,   24.2638E-06,   1.47522E+03
C:/ALETube/PressureUpdate/LargeStep/DeformErode/JobErode.odb,Step-1,Increment      3: Step Time =,    30.00,"TUBE-1",         13674,  -2.92791E-03,  -4.05307E-03,       1.03750,NA,NA,"",   5.02429E-03,            0.,       1.03770,   24.2914E-06,   1.47717E+03
C:/ALETube/PressureUpdate/LargeStep/DeformErode/JobErode.odb,Step-1,Increment      3: Step Time =,    30.00,"TUBE-1",         13838,  -2.92791E-03,  -4.05307E-03,       1.05000,NA,NA,"",   5.02438E-03,            0.,       1.05020,   24.3769E-06,   1.49499E+03
C:/ALETube/PressureUpdate/LargeStep/DeformErode/JobErode.odb,Step-1,Increment      3: Step Time =,    30.00,"TUBE-1",         13779,  -3.50742E-03,  -3.56342E-03,       1.05000,NA,NA,"",   5.02435E-03,   433.681E-21,       1.05020,   24.3494E-06,   1.49302E+03
C:/ALETube/PressureUpdate/LargeStep/DeformErode/JobErode.odb,Step-1,Increment      3: Step Time =,    30.00,"TUBE-1",         14002,  -2.92791E-03,  -4.05307E-03,        1.0625,NA,NA,"",   5.02446E-03,            0.,       1.06270,   24.4625E-06,   1.51281E+03
C:/ALETube/PressureUpdate/LargeStep/DeformErode/JobErode.odb,Step-1,Increment      3: Step Time =,    30.00,"TUBE-1",         13943,  -3.50742E-03,  -3.56342E-03,        1.0625,NA,NA,"",   5.02443E-03,            0.,       1.06270,   24.4349E-06,   1.51082E+03
C:/ALETube/PressureUpdate/LargeStep/DeformErode/JobErode.odb,Step-1,Increment      3: Step Time =,    30.00,"TUBE-1",         14107,  -3.50742E-03,  -3.56342E-03,       1.07500,NA,NA,"",   5.02452E-03,            0.,       1.07520,   24.5204E-06,   1.52861E+03
C:/ALETube/PressureUpdate/LargeStep/DeformErode/JobErode.odb,Step-1,Increment      3: Step Time =,    30.00,"TUBE-1",         14166,  -2.92791E-03,  -4.05307E-03,       1.07500,NA,NA,"",   5.02455E-03,            0.,       1.07520,   24.5480E-06,   1.53063E+03
C:/ALETube/PressureUpdate/LargeStep/DeformErode/JobErode.odb,Step-1,Increment      3: Step Time =,    30.00,"TUBE-1",         14330,  -2.92791E-03,  -4.05307E-03,       1.08750,NA,NA,"",   5.02463E-03,  -433.681E-21,       1.08770,   24.6335E-06,   1.54845E+03
C:/ALETube/PressureUpdate/LargeStep/DeformErode/JobErode.odb,Step-1,Increment      3: Step Time =,    30.00,"TUBE-1",         14271,  -3.50742E-03,  -3.56342E-03,       1.08750,NA,NA,"",   5.02461E-03,            0.,       1.08770,   24.6059E-06,   1.54641E+03
C:/ALETube/PressureUpdate/LargeStep/DeformErode/JobErode.odb,Step-1,Increment      3: Step Time =,    30.00,"TUBE-1",         14494,  -2.92791E-03,  -4.05307E-03,       1.10000,NA,NA,"",   5.02472E-03,            0.,       1.10020,   24.7191E-06,   1.56627E+03
C:/ALETube/PressureUpdate/LargeStep/DeformErode/JobErode.odb,Step-1,Increment      3: Step Time =,    30.00,"TUBE-1",         14435,  -3.50742E-03,  -3.56342E-03,       1.10000,NA,NA,"",   5.02469E-03,   433.681E-21,       1.10020,   24.6915E-06,   1.56421E+03
C:/ALETube/PressureUpdate/LargeStep/DeformErode/JobErode.odb,Step-1,Increment      3: Step Time =,    30.00,"TUBE-1",         14658,  -2.92791E-03,  -4.05307E-03,       1.11250,NA,NA,"",   5.02480E-03,            0.,       1.11269,   24.8046E-06,   1.58409E+03
C:/ALETube/PressureUpdate/LargeStep/DeformErode/JobErode.odb,Step-1,Increment      3: Step Time =,    30.00,"TUBE-1",         14599,  -3.50742E-03,  -3.56342E-03,       1.11250,NA,NA,"",   5.02478E-03,   433.681E-21,       1.11269,   24.7770E-06,   1.58200E+03
C:/ALETube/PressureUpdate/LargeStep/DeformErode/JobErode.odb,Step-1,Increment      3: Step Time =,    30.00,"TUBE-1",         14822,  -2.92791E-03,  -4.05307E-03,         1.125,NA,NA,"",   5.02489E-03,            0.,       1.12519,   24.8902E-06,   1.60192E+03
C:/ALETube/PressureUpdate/LargeStep/DeformErode/JobErode.odb,Step-1,Increment      3: Step Time =,    30.00,"TUBE-1",         14763,  -3.50742E-03,  -3.56342E-03,         1.125,NA,NA,"",   5.02486E-03,  -433.681E-21,       1.12519,   24.8625E-06,   1.59980E+03
C:/ALETube/PressureUpdate/LargeStep/DeformErode/JobErode.odb,Step-1,Increment      3: Step Time =,    30.00,"TUBE-1",         14927,  -3.50742E-03,  -3.56342E-03,       1.13750,NA,NA,"",   5.02495E-03,            0.,       1.13769,   24.9481E-06,   1.61760E+03
C:/ALETube/PressureUpdate/LargeStep/DeformErode/JobErode.odb,Step-1,Increment      3: Step Time =,    30.00,"TUBE-1",         14986,  -2.92791E-03,  -4.05307E-03,       1.13750,NA,NA,"",   5.02498E-03,            0.,       1.13769,   24.9757E-06,   1.61974E+03
C:/ALETube/PressureUpdate/LargeStep/DeformErode/JobErode.odb,Step-1,Increment      3: Step Time =,    30.00,"TUBE-1",         15150,  -2.92791E-03,  -4.05307E-03,       1.15000,NA,NA,"",   5.02506E-03,  -433.681E-21,       1.15019,   25.0613E-06,   1.63756E+03
C:/ALETube/PressureUpdate/LargeStep/DeformErode/JobErode.odb,Step-1,Increment      3: Step Time =,    30.00,"TUBE-1",         15091,  -3.50742E-03,  -3.56342E-03,       1.15000,NA,NA,"",   5.02503E-03,  -433.681E-21,       1.15019,   25.0336E-06,   1.63540E+03
C:/ALETube/PressureUpdate/LargeStep/DeformErode/JobErode.odb,Step-1,Increment      3: Step Time =,    30.00,"TUBE-1",         15314,  -2.92791E-03,  -4.05307E-03,       1.16250,NA,NA,"",   5.02515E-03,            0.,       1.16269,   25.1469E-06,   1.65539E+03
C:/ALETube/PressureUpdate/LargeStep/DeformErode/JobErode.odb,Step-1,Increment      3: Step Time =,    30.00,"TUBE-1",         15255,  -3.50742E-03,  -3.56342E-03,       1.16250,NA,NA,"",   5.02512E-03,  -433.681E-21,       1.16269,   25.1192E-06,   1.65320E+03
C:/ALETube/PressureUpdate/LargeStep/DeformErode/JobErode.odb,Step-1,Increment      3: Step Time =,    30.00,"TUBE-1",         15478,  -2.92791E-03,  -4.05307E-03,       1.17500,NA,NA,"",   5.02523E-03,            0.,       1.17518,   25.2324E-06,   1.67321E+03
C:/ALETube/PressureUpdate/LargeStep/DeformErode/JobErode.odb,Step-1,Increment      3: Step Time =,    30.00,"TUBE-1",         15419,  -3.50742E-03,  -3.56342E-03,       1.17500,NA,NA,"",   5.02520E-03,            0.,       1.17518,   25.2047E-06,   1.67100E+03
C:/ALETube/PressureUpdate/LargeStep/DeformErode/JobErode.odb,Step-1,Increment      3: Step Time =,    30.00,"TUBE-1",         15642,  -2.92791E-03,  -4.05307E-03,        1.1875,NA,NA,"",   5.02532E-03,   433.681E-21,       1.18768,   25.3180E-06,   1.69103E+03
C:/ALETube/PressureUpdate/LargeStep/DeformErode/JobErode.odb,Step-1,Increment      3: Step Time =,    30.00,"TUBE-1",         15583,  -3.50742E-03,  -3.56342E-03,        1.1875,NA,NA,"",   5.02529E-03,   433.681E-21,       1.18768,   25.2903E-06,   1.68880E+03
C:/ALETube/PressureUpdate/LargeStep/DeformErode/JobErode.odb,Step-1,Increment      3: Step Time =,    30.00,"TUBE-1",         15747,  -3.50742E-03,  -3.56342E-03,       1.20000,NA,NA,"",   5.02538E-03,            0.,       1.20018,   25.3759E-06,   1.70660E+03
C:/ALETube/PressureUpdate/LargeStep/DeformErode/JobErode.odb,Step-1,Increment      3: Step Time =,    30.00,"TUBE-1",         15806,  -2.92791E-03,  -4.05307E-03,       1.20000,NA,NA,"",   5.02540E-03,            0.,       1.20018,   25.4036E-06,   1.70886E+03
C:/ALETube/PressureUpdate/LargeStep/DeformErode/JobErode.odb,Step-1,Increment      3: Step Time =,    30.00,"TUBE-1",         15970,  -2.92791E-03,  -4.05307E-03,       1.21250,NA,NA,"",   5.02549E-03,            0.,       1.21268,   25.4892E-06,   1.72668E+03
C:/ALETube/PressureUpdate/LargeStep/DeformErode/JobErode.odb,Step-1,Increment      3: Step Time =,    30.00,"TUBE-1",         15911,  -3.50742E-03,  -3.56342E-03,       1.21250,NA,NA,"",   5.02546E-03,   433.681E-21,       1.21268,   25.4614E-06,   1.72441E+03
C:/ALETube/PressureUpdate/LargeStep/DeformErode/JobErode.odb,Step-1,Increment      3: Step Time =,    30.00,"TUBE-1",         16134,  -2.92791E-03,  -4.05307E-03,       1.22500,NA,NA,"",   5.02557E-03,            0.,       1.22518,   25.5748E-06,   1.74451E+03
C:/ALETube/PressureUpdate/LargeStep/DeformErode/JobErode.odb,Step-1,Increment      3: Step Time =,    30.00,"TUBE-1",         16075,  -3.50742E-03,  -3.56342E-03,       1.22500,NA,NA,"",   5.02555E-03,            0.,       1.22518,   25.5470E-06,   1.74221E+03
C:/ALETube/PressureUpdate/LargeStep/DeformErode/JobErode.odb,Step-1,Increment      3: Step Time =,    30.00,"TUBE-1",         16298,  -2.92791E-03,  -4.05307E-03,       1.23750,NA,NA,"",   5.02566E-03,  -433.681E-21,       1.23767,   25.6603E-06,   1.76234E+03
C:/ALETube/PressureUpdate/LargeStep/DeformErode/JobErode.odb,Step-1,Increment      3: Step Time =,    30.00,"TUBE-1",         16239,  -3.50742E-03,  -3.56342E-03,       1.23750,NA,NA,"",   5.02563E-03,            0.,       1.23767,   25.6326E-06,   1.76001E+03
C:/ALETube/PressureUpdate/LargeStep/DeformErode/JobErode.odb,Step-1,Increment      3: Step Time =,    30.00,"TUBE-1",         16462,  -2.92791E-03,  -4.05307E-03,          1.25,NA,NA,"",   5.02575E-03,  -433.681E-21,       1.25017,   25.7459E-06,   1.78016E+03
C:/ALETube/PressureUpdate/LargeStep/DeformErode/JobErode.odb,Step-1,Increment      3: Step Time =,    30.00,"TUBE-1",         16403,  -3.50742E-03,  -3.56342E-03,          1.25,NA,NA,"",   5.02572E-03,            0.,       1.25017,   25.7182E-06,   1.77782E+03
C:/ALETube/PressureUpdate/LargeStep/DeformErode/JobErode.odb,Step-1,Increment      3: Step Time =,    30.00,"TUBE-1",         16567,  -3.50742E-03,  -3.56342E-03,       1.26250,NA,NA,"",   5.02580E-03,            0.,       1.26267,   25.8037E-06,   1.79562E+03
C:/ALETube/PressureUpdate/LargeStep/DeformErode/JobErode.odb,Step-1,Increment      3: Step Time =,    30.00,"TUBE-1",         16626,  -2.92791E-03,  -4.05307E-03,       1.26250,NA,NA,"",   5.02583E-03,            0.,       1.26267,   25.8315E-06,   1.79799E+03
C:/ALETube/PressureUpdate/LargeStep/DeformErode/JobErode.odb,Step-1,Increment      3: Step Time =,    30.00,"TUBE-1",         16790,  -2.92791E-03,  -4.05307E-03,       1.27500,NA,NA,"",   5.02592E-03,            0.,       1.27517,   25.9171E-06,   1.81582E+03
C:/ALETube/PressureUpdate/LargeStep/DeformErode/JobErode.odb,Step-1,Increment      3: Step Time =,    30.00,"TUBE-1",         16731,  -3.50742E-03,  -3.56342E-03,       1.27500,NA,NA,"",   5.02589E-03,            0.,       1.27517,   25.8893E-06,   1.81342E+03
C:/ALETube/PressureUpdate/LargeStep/DeformErode/JobErode.odb,Step-1,Increment      3: Step Time =,    30.00,"TUBE-1",         16954,  -2.92791E-03,  -4.05307E-03,       1.28750,NA,NA,"",   5.02600E-03,  -433.681E-21,       1.28766,   26.0027E-06,   1.83365E+03
C:/ALETube/PressureUpdate/LargeStep/DeformErode/JobErode.odb,Step-1,Increment      3: Step Time =,    30.00,"TUBE-1",         16895,  -3.50742E-03,  -3.56342E-03,       1.28750,NA,NA,"",   5.02597E-03,            0.,       1.28766,   25.9749E-06,   1.83123E+03
C:/ALETube/PressureUpdate/LargeStep/DeformErode/JobErode.odb,Step-1,Increment      3: Step Time =,    30.00,"TUBE-1",         17118,  -2.92791E-03,  -4.05307E-03,       1.30000,NA,NA,"",   5.02609E-03,            0.,       1.30016,   26.0883E-06,   1.85148E+03
C:/ALETube/PressureUpdate/LargeStep/DeformErode/JobErode.odb,Step-1,Increment      3: Step Time =,    30.00,"TUBE-1",         17059,  -3.50742E-03,  -3.56342E-03,       1.30000,NA,NA,"",   5.02606E-03,   165.935E-12,       1.30016,   26.0605E-06,   1.84904E+03
C:/ALETube/PressureUpdate/LargeStep/DeformErode/JobErode.odb,Step-1,Increment      3: Step Time =,    30.00,"TUBE-1",         17282,  -2.92791E-03,  -4.05307E-03,        1.3125,NA,NA,"",   5.02617E-03,  -433.681E-21,       1.31266,   26.1740E-06,   1.86931E+03
C:/ALETube/PressureUpdate/LargeStep/DeformErode/JobErode.odb,Step-1,Increment      3: Step Time =,    30.00,"TUBE-1",         17223,  -3.50742E-03,  -3.56342E-03,        1.3125,NA,NA,"",   5.02615E-03,            0.,       1.31266,   26.1461E-06,   1.86684E+03
C:/ALETube/PressureUpdate/LargeStep/DeformErode/JobErode.odb,Step-1,Increment      3: Step Time =,    30.00,"TUBE-1",         17387,  -3.50742E-03,  -3.56342E-03,       1.32500,NA,NA,"",   5.02623E-03,            0.,       1.32516,   26.2317E-06,   1.88465E+03
C:/ALETube/PressureUpdate/LargeStep/DeformErode/JobErode.odb,Step-1,Increment      3: Step Time =,    30.00,"TUBE-1",         17446,  -2.92791E-03,  -4.05307E-03,       1.32500,NA,NA,"",   5.02626E-03,   433.681E-21,       1.32516,   26.2596E-06,   1.88714E+03
C:/ALETube/PressureUpdate/LargeStep/DeformErode/JobErode.odb,Step-1,Increment      3: Step Time =,    30.00,"TUBE-1",         17610,  -2.92791E-03,  -4.05307E-03,       1.33750,NA,NA,"",   5.02635E-03,            0.,       1.33765,   26.3452E-06,   1.90497E+03
C:/ALETube/PressureUpdate/LargeStep/DeformErode/JobErode.odb,Step-1,Increment      3: Step Time =,    30.00,"TUBE-1",         17551,  -3.50742E-03,  -3.56342E-03,       1.33750,NA,NA,"",   5.02632E-03,  -433.681E-21,       1.33765,   26.3173E-06,   1.90246E+03
C:/ALETube/PressureUpdate/LargeStep/DeformErode/JobErode.odb,Step-1,Increment      3: Step Time =,    30.00,"TUBE-1",         17774,  -2.92791E-03,  -4.05307E-03,       1.35000,NA,NA,"",   5.02643E-03,            0.,       1.35015,   26.4308E-06,   1.92280E+03
C:/ALETube/PressureUpdate/LargeStep/DeformErode/JobErode.odb,Step-1,Increment      3: Step Time =,    30.00,"TUBE-1",         17715,  -3.50742E-03,  -3.56342E-03,       1.35000,NA,NA,"",   5.02640E-03,            0.,       1.35015,   26.4029E-06,   1.92026E+03
C:/ALETube/PressureUpdate/LargeStep/DeformErode/JobErode.odb,Step-1,Increment      3: Step Time =,    30.00,"TUBE-1",         17938,  -2.92791E-03,  -4.05307E-03,       1.36250,NA,NA,"",   5.02652E-03,  -433.681E-21,       1.36265,   26.5164E-06,   1.94063E+03
C:/ALETube/PressureUpdate/LargeStep/DeformErode/JobErode.odb,Step-1,Increment      3: Step Time =,    30.00,"TUBE-1",         17879,  -3.50742E-03,  -3.56342E-03,       1.36250,NA,NA,"",   5.02649E-03,   433.681E-21,       1.36265,   26.4886E-06,   1.93807E+03
C:/ALETube/PressureUpdate/LargeStep/DeformErode/JobErode.odb,Step-1,Increment      3: Step Time =,    30.00,"TUBE-1",         18102,  -2.92791E-03,  -4.05307E-03,         1.375,NA,NA,"",   5.02660E-03,            0.,       1.37515,   26.6021E-06,   1.95846E+03
C:/ALETube/PressureUpdate/LargeStep/DeformErode/JobErode.odb,Step-1,Increment      3: Step Time =,    30.00,"TUBE-1",         18043,  -3.50742E-03,  -3.56342E-03,         1.375,NA,NA,"",   5.02657E-03,            0.,       1.37515,   26.5742E-06,   1.95588E+03
C:/ALETube/PressureUpdate/LargeStep/DeformErode/JobErode.odb,Step-1,Increment      3: Step Time =,    30.00,"TUBE-1",         18207,  -3.50742E-03,  -3.56342E-03,       1.38750,NA,NA,"",   5.02666E-03,            0.,       1.38765,   26.6598E-06,   1.97369E+03
C:/ALETube/PressureUpdate/LargeStep/DeformErode/JobErode.odb,Step-1,Increment      3: Step Time =,    30.00,"TUBE-1",         18266,  -2.92791E-03,  -4.05307E-03,       1.38750,NA,NA,"",   5.02669E-03,            0.,       1.38765,   26.6877E-06,   1.97630E+03
C:/ALETube/PressureUpdate/LargeStep/DeformErode/JobErode.odb,Step-1,Increment      3: Step Time =,    30.00,"TUBE-1",         18430,  -2.92791E-03,  -4.05307E-03,       1.40000,NA,NA,"",   5.02677E-03,   433.681E-21,       1.40014,   26.7734E-06,   1.99413E+03
C:/ALETube/PressureUpdate/LargeStep/DeformErode/JobErode.odb,Step-1,Increment      3: Step Time =,    30.00,"TUBE-1",         18371,  -3.50742E-03,  -3.56342E-03,       1.40000,NA,NA,"",   5.02675E-03,            0.,       1.40014,   26.7454E-06,   1.99150E+03
C:/ALETube/PressureUpdate/LargeStep/DeformErode/JobErode.odb,Step-1,Increment      3: Step Time =,    30.00,"TUBE-1",         18594,  -2.92791E-03,  -4.05307E-03,       1.41250,NA,NA,"",   5.02686E-03,            0.,       1.41264,   26.8590E-06,   2.01196E+03
C:/ALETube/PressureUpdate/LargeStep/DeformErode/JobErode.odb,Step-1,Increment      3: Step Time =,    30.00,"TUBE-1",         18535,  -3.50742E-03,  -3.56342E-03,       1.41250,NA,NA,"",   5.02683E-03,            0.,       1.41264,   26.8311E-06,   2.00931E+03
C:/ALETube/PressureUpdate/LargeStep/DeformErode/JobErode.odb,Step-1,Increment      3: Step Time =,    30.00,"TUBE-1",         18758,  -2.92791E-03,  -4.05307E-03,       1.42500,NA,NA,"",   5.02694E-03,            0.,       1.42514,   26.9447E-06,   2.02980E+03
C:/ALETube/PressureUpdate/LargeStep/DeformErode/JobErode.odb,Step-1,Increment      3: Step Time =,    30.00,"TUBE-1",         18699,  -3.50742E-03,  -3.56342E-03,       1.42500,NA,NA,"",   5.02692E-03,  -433.681E-21,       1.42514,   26.9167E-06,   2.02712E+03
C:/ALETube/PressureUpdate/LargeStep/DeformErode/JobErode.odb,Step-1,Increment      3: Step Time =,    30.00,"TUBE-1",         18922,  -2.92791E-03,  -4.05307E-03,        1.4375,NA,NA,"",   5.02703E-03,  -433.681E-21,       1.43764,   27.0303E-06,   2.04763E+03
C:/ALETube/PressureUpdate/LargeStep/DeformErode/JobErode.odb,Step-1,Increment      3: Step Time =,    30.00,"TUBE-1",         18863,  -3.50742E-03,  -3.56342E-03,        1.4375,NA,NA,"",   5.02700E-03,            0.,       1.43764,   27.0023E-06,   2.04493E+03
C:/ALETube/PressureUpdate/LargeStep/DeformErode/JobErode.odb,Step-1,Increment      3: Step Time =,    30.00,"TUBE-1",         19027,  -3.50742E-03,  -3.56342E-03,       1.45000,NA,NA,"",   5.02709E-03,            0.,       1.45013,   27.0880E-06,   2.06274E+03
C:/ALETube/PressureUpdate/LargeStep/DeformErode/JobErode.odb,Step-1,Increment      3: Step Time =,    30.00,"TUBE-1",         19086,  -2.92791E-03,  -4.05307E-03,       1.45000,NA,NA,"",   5.02712E-03,   433.681E-21,       1.45013,   27.1160E-06,   2.06547E+03
C:/ALETube/PressureUpdate/LargeStep/DeformErode/JobErode.odb,Step-1,Increment      3: Step Time =,    30.00,"TUBE-1",         19250,  -2.92791E-03,  -4.05307E-03,       1.46250,NA,NA,"",   5.02720E-03,            0.,       1.46263,   27.2016E-06,   2.08330E+03
C:/ALETube/PressureUpdate/LargeStep/DeformErode/JobErode.odb,Step-1,Increment      3: Step Time =,    30.00,"TUBE-1",         19191,  -3.50742E-03,  -3.56342E-03,       1.46250,NA,NA,"",   5.02717E-03,  -433.681E-21,       1.46263,   27.1736E-06,   2.08056E+03
C:/ALETube/PressureUpdate/LargeStep/DeformErode/JobErode.odb,Step-1,Increment      3: Step Time =,    30.00,"TUBE-1",         19414,  -2.92791E-03,  -4.05307E-03,       1.47500,NA,NA,"",   5.02729E-03,            0.,       1.47513,   27.2873E-06,   2.10114E+03
C:/ALETube/PressureUpdate/LargeStep/DeformErode/JobErode.odb,Step-1,Increment      3: Step Time =,    30.00,"TUBE-1",         19355,  -3.50742E-03,  -3.56342E-03,       1.47500,NA,NA,"",   5.02726E-03,            0.,       1.47513,   27.2593E-06,   2.09837E+03
C:/ALETube/PressureUpdate/LargeStep/DeformErode/JobErode.odb,Step-1,Increment      3: Step Time =,    30.00,"TUBE-1",         19578,  -2.92791E-03,  -4.05307E-03,       1.48750,NA,NA,"",   5.02737E-03,            0.,       1.48763,   27.3730E-06,   2.11898E+03
C:/ALETube/PressureUpdate/LargeStep/DeformErode/JobErode.odb,Step-1,Increment      3: Step Time =,    30.00,"TUBE-1",         19519,  -3.50742E-03,  -3.56342E-03,       1.48750,NA,NA,"",   5.02734E-03,   433.681E-21,       1.48763,   27.3449E-06,   2.11618E+03
C:/ALETube/PressureUpdate/LargeStep/DeformErode/JobErode.odb,Step-1,Increment      3: Step Time =,    30.00,"TUBE-1",         19742,  -2.92791E-03,  -4.05307E-03,           1.5,NA,NA,"",   5.02746E-03,            0.,       1.50012,   27.4586E-06,   2.13682E+03
C:/ALETube/PressureUpdate/LargeStep/DeformErode/JobErode.odb,Step-1,Increment      3: Step Time =,    30.00,"TUBE-1",         19683,  -3.50742E-03,  -3.56342E-03,           1.5,NA,NA,"",   5.02743E-03,            0.,       1.50012,   27.4306E-06,   2.13400E+03
C:/ALETube/PressureUpdate/LargeStep/DeformErode/JobErode.odb,Step-1,Increment      3: Step Time =,    30.00,"TUBE-1",         19847,  -3.50742E-03,  -3.56342E-03,       1.51250,NA,NA,"",   5.02752E-03,            0.,       1.51262,   27.5163E-06,   2.15181E+03
C:/ALETube/PressureUpdate/LargeStep/DeformErode/JobErode.odb,Step-1,Increment      3: Step Time =,    30.00,"TUBE-1",         19906,  -2.92791E-03,  -4.05307E-03,       1.51250,NA,NA,"",   5.02754E-03,  -433.681E-21,       1.51262,   27.5443E-06,   2.15465E+03
C:/ALETube/PressureUpdate/LargeStep/DeformErode/JobErode.odb,Step-1,Increment      3: Step Time =,    30.00,"TUBE-1",         20070,  -2.92791E-03,  -4.05307E-03,       1.52500,NA,NA,"",   5.02763E-03,            0.,       1.52512,   27.6300E-06,   2.17249E+03
C:/ALETube/PressureUpdate/LargeStep/DeformErode/JobErode.odb,Step-1,Increment      3: Step Time =,    30.00,"TUBE-1",         20011,  -3.50742E-03,  -3.56342E-03,       1.52500,NA,NA,"",   5.02760E-03,   433.681E-21,       1.52512,   27.6019E-06,   2.16963E+03
C:/ALETube/PressureUpdate/LargeStep/DeformErode/JobErode.odb,Step-1,Increment      3: Step Time =,    30.00,"TUBE-1",         20234,  -2.92791E-03,  -4.05307E-03,       1.53750,NA,NA,"",   5.02772E-03,            0.,       1.53761,   27.7157E-06,   2.19033E+03
C:/ALETube/PressureUpdate/LargeStep/DeformErode/JobErode.odb,Step-1,Increment      3: Step Time =,    30.00,"TUBE-1",         20175,  -3.50742E-03,  -3.56342E-03,       1.53750,NA,NA,"",   5.02769E-03,   433.681E-21,       1.53761,   27.6876E-06,   2.18744E+03
C:/ALETube/PressureUpdate/LargeStep/DeformErode/JobErode.odb,Step-1,Increment      3: Step Time =,    30.00,"TUBE-1",         20398,  -2.92791E-03,  -4.05307E-03,       1.55000,NA,NA,"",   5.02780E-03,            0.,       1.55011,   27.8014E-06,   2.20817E+03
C:/ALETube/PressureUpdate/LargeStep/DeformErode/JobErode.odb,Step-1,Increment      3: Step Time =,    30.00,"TUBE-1",         20339,  -3.50742E-03,  -3.56342E-03,       1.55000,NA,NA,"",   5.02777E-03,            0.,       1.55011,   27.7733E-06,   2.20526E+03
C:/ALETube/PressureUpdate/LargeStep/DeformErode/JobErode.odb,Step-1,Increment      3: Step Time =,    30.00,"TUBE-1",         20562,  -2.92791E-03,  -4.05307E-03,        1.5625,NA,NA,"",   5.02789E-03,            0.,       1.56261,   27.8870E-06,   2.22601E+03
C:/ALETube/PressureUpdate/LargeStep/DeformErode/JobErode.odb,Step-1,Increment      3: Step Time =,    30.00,"TUBE-1",         20503,  -3.50742E-03,  -3.56342E-03,        1.5625,NA,NA,"",   5.02786E-03,            0.,       1.56261,   27.8589E-06,   2.22307E+03
C:/ALETube/PressureUpdate/LargeStep/DeformErode/JobErode.odb,Step-1,Increment      3: Step Time =,    30.00,"TUBE-1",         20667,  -3.50742E-03,  -3.56342E-03,       1.57500,NA,NA,"",   5.02794E-03,            0.,       1.57511,   27.9446E-06,   2.24089E+03
C:/ALETube/PressureUpdate/LargeStep/DeformErode/JobErode.odb,Step-1,Increment      3: Step Time =,    30.00,"TUBE-1",         20726,  -2.92791E-03,  -4.05307E-03,       1.57500,NA,NA,"",   5.02797E-03,            0.,       1.57511,   27.9727E-06,   2.24385E+03
C:/ALETube/PressureUpdate/LargeStep/DeformErode/JobErode.odb,Step-1,Increment      3: Step Time =,    30.00,"TUBE-1",         20890,  -2.92791E-03,  -4.05307E-03,       1.58750,NA,NA,"",   5.02806E-03,            0.,       1.58760,   28.0584E-06,   2.26169E+03
C:/ALETube/PressureUpdate/LargeStep/DeformErode/JobErode.odb,Step-1,Increment      3: Step Time =,    30.00,"TUBE-1",         20831,  -3.50742E-03,  -3.56342E-03,       1.58750,NA,NA,"",   5.02803E-03,   433.681E-21,       1.58760,   28.0303E-06,   2.25871E+03
C:/ALETube/PressureUpdate/LargeStep/DeformErode/JobErode.odb,Step-1,Increment      3: Step Time =,    30.00,"TUBE-1",         21054,  -2.92791E-03,  -4.05307E-03,       1.60000,NA,NA,"",   5.02814E-03,  -433.681E-21,       1.60010,   28.1441E-06,   2.27953E+03
C:/ALETube/PressureUpdate/LargeStep/DeformErode/JobErode.odb,Step-1,Increment      3: Step Time =,    30.00,"TUBE-1",         20995,  -3.50742E-03,  -3.56342E-03,       1.60000,NA,NA,"",   5.02812E-03,   433.681E-21,       1.60010,   28.1160E-06,   2.27653E+03
C:/ALETube/PressureUpdate/LargeStep/DeformErode/JobErode.odb,Step-1,Increment      3: Step Time =,    30.00,"TUBE-1",         21218,  -2.92791E-03,  -4.05307E-03,       1.61250,NA,NA,"",   5.02823E-03,            0.,       1.61260,   28.2298E-06,   2.29738E+03
C:/ALETube/PressureUpdate/LargeStep/DeformErode/JobErode.odb,Step-1,Increment      3: Step Time =,    30.00,"TUBE-1",         21159,  -3.50742E-03,  -3.56342E-03,       1.61250,NA,NA,"",   5.02820E-03,            0.,       1.61260,   28.2017E-06,   2.29435E+03
C:/ALETube/PressureUpdate/LargeStep/DeformErode/JobErode.odb,Step-1,Increment      3: Step Time =,    30.00,"TUBE-1",         21382,  -2.92791E-03,  -4.05307E-03,         1.625,NA,NA,"",   5.02832E-03,  -433.681E-21,       1.62510,   28.3156E-06,   2.31522E+03
C:/ALETube/PressureUpdate/LargeStep/DeformErode/JobErode.odb,Step-1,Increment      3: Step Time =,    30.00,"TUBE-1",         21323,  -3.50742E-03,  -3.56342E-03,         1.625,NA,NA,"",   5.02829E-03,            0.,       1.62510,   28.2874E-06,   2.31217E+03
C:/ALETube/PressureUpdate/LargeStep/DeformErode/JobErode.odb,Step-1,Increment      3: Step Time =,    30.00,"TUBE-1",         21487,  -3.50742E-03,  -3.56342E-03,       1.63750,NA,NA,"",   5.02837E-03,            0.,       1.63759,   28.3731E-06,   2.32998E+03
C:/ALETube/PressureUpdate/LargeStep/DeformErode/JobErode.odb,Step-1,Increment      3: Step Time =,    30.00,"TUBE-1",         21546,  -2.92791E-03,  -4.05307E-03,       1.63750,NA,NA,"",   5.02840E-03,  -433.681E-21,       1.63759,   28.4013E-06,   2.33306E+03
C:/ALETube/PressureUpdate/LargeStep/DeformErode/JobErode.odb,Step-1,Increment      3: Step Time =,    30.00,"TUBE-1",         21710,  -2.92791E-03,  -4.05307E-03,       1.65000,NA,NA,"",   5.02849E-03,  -433.681E-21,       1.65009,   28.4870E-06,   2.35091E+03
C:/ALETube/PressureUpdate/LargeStep/DeformErode/JobErode.odb,Step-1,Increment      3: Step Time =,    30.00,"TUBE-1",         21651,  -3.50742E-03,  -3.56342E-03,       1.65000,NA,NA,"",   5.02846E-03,            0.,       1.65009,   28.4588E-06,   2.34780E+03
C:/ALETube/PressureUpdate/LargeStep/DeformErode/JobErode.odb,Step-1,Increment      3: Step Time =,    30.00,"TUBE-1",         21874,  -2.92791E-03,  -4.05307E-03,       1.66250,NA,NA,"",   5.02857E-03,            0.,       1.66259,   28.5727E-06,   2.36875E+03
C:/ALETube/PressureUpdate/LargeStep/DeformErode/JobErode.odb,Step-1,Increment      3: Step Time =,    30.00,"TUBE-1",         21815,  -3.50742E-03,  -3.56342E-03,       1.66250,NA,NA,"",   5.02854E-03,   433.681E-21,       1.66259,   28.5445E-06,   2.36563E+03
C:/ALETube/PressureUpdate/LargeStep/DeformErode/JobErode.odb,Step-1,Increment      3: Step Time =,    30.00,"TUBE-1",         22038,  -2.92791E-03,  -4.05307E-03,       1.67500,NA,NA,"",   5.02866E-03,   433.681E-21,       1.67508,   28.6584E-06,   2.38659E+03
C:/ALETube/PressureUpdate/LargeStep/DeformErode/JobErode.odb,Step-1,Increment      3: Step Time =,    30.00,"TUBE-1",         21979,  -3.50742E-03,  -3.56342E-03,       1.67500,NA,NA,"",   5.02863E-03,   433.681E-21,       1.67508,   28.6302E-06,   2.38345E+03
C:/ALETube/PressureUpdate/LargeStep/DeformErode/JobErode.odb,Step-1,Increment      3: Step Time =,    30.00,"TUBE-1",         22202,  -2.92791E-03,  -4.05307E-03,        1.6875,NA,NA,"",   5.02874E-03,  -433.681E-21,       1.68758,   28.7442E-06,   2.40444E+03
C:/ALETube/PressureUpdate/LargeStep/DeformErode/JobErode.odb,Step-1,Increment      3: Step Time =,    30.00,"TUBE-1",         22143,  -3.50742E-03,  -3.56342E-03,        1.6875,NA,NA,"",   5.02872E-03,            0.,       1.68758,   28.7160E-06,   2.40127E+03
C:/ALETube/PressureUpdate/LargeStep/DeformErode/JobErode.odb,Step-1,Increment      3: Step Time =,    30.00,"TUBE-1",         22307,  -3.50742E-03,  -3.56342E-03,       1.70000,NA,NA,"",   5.02880E-03,  -433.681E-21,       1.70008,   28.8017E-06,   2.41909E+03
C:/ALETube/PressureUpdate/LargeStep/DeformErode/JobErode.odb,Step-1,Increment      3: Step Time =,    30.00,"TUBE-1",         22366,  -2.92791E-03,  -4.05307E-03,       1.70000,NA,NA,"",   5.02883E-03,  -433.681E-21,       1.70008,   28.8299E-06,   2.42229E+03
C:/ALETube/PressureUpdate/LargeStep/DeformErode/JobErode.odb,Step-1,Increment      3: Step Time =,    30.00,"TUBE-1",         22530,  -2.92791E-03,  -4.05307E-03,       1.71250,NA,NA,"",   5.02892E-03,   433.681E-21,       1.71257,   28.9157E-06,   2.44013E+03
C:/ALETube/PressureUpdate/LargeStep/DeformErode/JobErode.odb,Step-1,Increment      3: Step Time =,    30.00,"TUBE-1",         22471,  -3.50742E-03,  -3.56342E-03,       1.71250,NA,NA,"",   5.02889E-03,            0.,       1.71257,   28.8874E-06,   2.43691E+03
C:/ALETube/PressureUpdate/LargeStep/DeformErode/JobErode.odb,Step-1,Increment      3: Step Time =,    30.00,"TUBE-1",         22694,  -2.92791E-03,  -4.05307E-03,       1.72500,NA,NA,"",   5.02900E-03,            0.,       1.72507,   29.0014E-06,   2.45798E+03
C:/ALETube/PressureUpdate/LargeStep/DeformErode/JobErode.odb,Step-1,Increment      3: Step Time =,    30.00,"TUBE-1",         22635,  -3.50742E-03,  -3.56342E-03,       1.72500,NA,NA,"",   5.02897E-03,            0.,       1.72507,   28.9731E-06,   2.45474E+03
C:/ALETube/PressureUpdate/LargeStep/DeformErode/JobErode.odb,Step-1,Increment      3: Step Time =,    30.00,"TUBE-1",         22858,  -2.92791E-03,  -4.05307E-03,       1.73750,NA,NA,"",   5.02909E-03,            0.,       1.73757,   29.0871E-06,   2.47582E+03
C:/ALETube/PressureUpdate/LargeStep/DeformErode/JobErode.odb,Step-1,Increment      3: Step Time =,    30.00,"TUBE-1",         22799,  -3.50742E-03,  -3.56342E-03,       1.73750,NA,NA,"",   5.02906E-03,            0.,       1.73757,   29.0589E-06,   2.47256E+03
C:/ALETube/PressureUpdate/LargeStep/DeformErode/JobErode.odb,Step-1,Increment      3: Step Time =,    30.00,"TUBE-1",         23022,  -2.92791E-03,  -4.05307E-03,          1.75,NA,NA,"",   5.02917E-03,            0.,       1.75007,   29.1729E-06,   2.49368E+03
C:/ALETube/PressureUpdate/LargeStep/DeformErode/JobErode.odb,Step-1,Increment      3: Step Time =,    30.00,"TUBE-1",         22963,  -3.50742E-03,  -3.56342E-03,          1.75,NA,NA,"",   5.02914E-03,   165.935E-12,       1.75007,   29.1446E-06,   2.49039E+03
C:/ALETube/PressureUpdate/LargeStep/DeformErode/JobErode.odb,Step-1,Increment      3: Step Time =,    30.00,"TUBE-1",         23127,  -3.50742E-03,  -3.56342E-03,       1.76250,NA,NA,"",   5.02923E-03,            0.,       1.76256,   29.2303E-06,   2.50819E+03
C:/ALETube/PressureUpdate/LargeStep/DeformErode/JobErode.odb,Step-1,Increment      3: Step Time =,    30.00,"TUBE-1",         23186,  -2.92791E-03,  -4.05307E-03,       1.76250,NA,NA,"",   5.02926E-03,            0.,       1.76256,   29.2586E-06,   2.51150E+03
C:/ALETube/PressureUpdate/LargeStep/DeformErode/JobErode.odb,Step-1,Increment      3: Step Time =,    30.00,"TUBE-1",         23350,  -2.92791E-03,  -4.05307E-03,       1.77500,NA,NA,"",   5.02934E-03,            0.,       1.77506,   29.3443E-06,   2.52939E+03
C:/ALETube/PressureUpdate/LargeStep/DeformErode/JobErode.odb,Step-1,Increment      3: Step Time =,    30.00,"TUBE-1",         23291,  -3.50742E-03,  -3.56342E-03,       1.77500,NA,NA,"",   5.02932E-03,            0.,       1.77506,   29.3160E-06,   2.52605E+03
C:/ALETube/PressureUpdate/LargeStep/DeformErode/JobErode.odb,Step-1,Increment      3: Step Time =,    30.00,"TUBE-1",         23514,  -2.92791E-03,  -4.05307E-03,       1.78750,NA,NA,"",   5.02943E-03,            0.,       1.78756,   29.4311E-06,   2.54736E+03
C:/ALETube/PressureUpdate/LargeStep/DeformErode/JobErode.odb,Step-1,Increment      3: Step Time =,    30.00,"TUBE-1",         23455,  -3.50742E-03,  -3.56342E-03,       1.78750,NA,NA,"",   5.02940E-03,            0.,       1.78756,   29.4028E-06,   2.54400E+03
C:/ALETube/PressureUpdate/LargeStep/DeformErode/JobErode.odb,Step-1,Increment      3: Step Time =,    30.00,"TUBE-1",         23678,  -2.92791E-03,  -4.05307E-03,       1.80000,NA,NA,"",   5.02951E-03,  -433.681E-21,       1.80005,   29.5137E-06,   2.56465E+03
C:/ALETube/PressureUpdate/LargeStep/DeformErode/JobErode.odb,Step-1,Increment      3: Step Time =,    30.00,"TUBE-1",         23619,  -3.50742E-03,  -3.56342E-03,       1.80000,NA,NA,"",   5.02949E-03,  -433.681E-21,       1.80005,   29.4853E-06,   2.56127E+03
C:/ALETube/PressureUpdate/LargeStep/DeformErode/JobErode.odb,Step-1,Increment      3: Step Time =,    30.00,"TUBE-1",         23842,  -2.92791E-03,  -4.05307E-03,        1.8125,NA,NA,"",   5.02958E-03,  -433.681E-21,       1.81255,   29.5814E-06,   2.57863E+03
C:/ALETube/PressureUpdate/LargeStep/DeformErode/JobErode.odb,Step-1,Increment      3: Step Time =,    30.00,"TUBE-1",         23783,  -3.50742E-03,  -3.56342E-03,        1.8125,NA,NA,"",   5.02955E-03,            0.,       1.81255,   29.5530E-06,   2.57523E+03
C:/ALETube/PressureUpdate/LargeStep/DeformErode/JobErode.odb,Step-1,Increment      3: Step Time =,    30.00,"TUBE-1",         23947,  -3.50742E-03,  -3.56342E-03,       1.82500,NA,NA,"",   5.02964E-03,            0.,       1.82505,   29.6406E-06,   2.59357E+03
C:/ALETube/PressureUpdate/LargeStep/DeformErode/JobErode.odb,Step-1,Increment      3: Step Time =,    30.00,"TUBE-1",         24006,  -2.92791E-03,  -4.05307E-03,       1.82500,NA,NA,"",   5.02967E-03,   433.681E-21,       1.82505,   29.6690E-06,   2.59700E+03
C:/ALETube/PressureUpdate/LargeStep/DeformErode/JobErode.odb,Step-1,Increment      3: Step Time =,    30.00,"TUBE-1",         24170,  -2.92791E-03,  -4.05307E-03,       1.83750,NA,NA,"",   5.02976E-03,  -867.362E-21,       1.83754,   29.7553E-06,   2.61484E+03
C:/ALETube/PressureUpdate/LargeStep/DeformErode/JobErode.odb,Step-1,Increment      3: Step Time =,    30.00,"TUBE-1",         24111,  -3.50742E-03,  -3.56342E-03,       1.83750,NA,NA,"",   5.02973E-03,            0.,       1.83754,   29.7269E-06,   2.61139E+03
C:/ALETube/PressureUpdate/LargeStep/DeformErode/JobErode.odb,Step-1,Increment      3: Step Time =,    30.00,"TUBE-1",         24334,  -2.92791E-03,  -4.05307E-03,       1.85000,NA,NA,"",   5.02984E-03,   272.682E-12,       1.85004,   29.8409E-06,   2.63272E+03
C:/ALETube/PressureUpdate/LargeStep/DeformErode/JobErode.odb,Step-1,Increment      3: Step Time =,    30.00,"TUBE-1",         24275,  -3.50742E-03,  -3.56342E-03,       1.85000,NA,NA,"",   5.02981E-03,            0.,       1.85004,   29.8125E-06,   2.62925E+03
C:/ALETube/PressureUpdate/LargeStep/DeformErode/JobErode.odb,Step-1,Increment      3: Step Time =,    30.00,"TUBE-1",         24498,  -2.92791E-03,  -4.05307E-03,       1.86250,NA,NA,"",   5.02993E-03,            0.,       1.86254,   29.9267E-06,   2.65054E+03
C:/ALETube/PressureUpdate/LargeStep/DeformErode/JobErode.odb,Step-1,Increment      3: Step Time =,    30.00,"TUBE-1",         24439,  -3.50742E-03,  -3.56342E-03,       1.86250,NA,NA,"",   5.02990E-03,  -433.681E-21,       1.86254,   29.8983E-06,   2.64704E+03
C:/ALETube/PressureUpdate/LargeStep/DeformErode/JobErode.odb,Step-1,Increment      3: Step Time =,    30.00,"TUBE-1",         24662,  -2.92791E-03,  -4.05307E-03,         1.875,NA,NA,"",   5.03001E-03,            0.,       1.87503,   30.0125E-06,   2.66841E+03
C:/ALETube/PressureUpdate/LargeStep/DeformErode/JobErode.odb,Step-1,Increment      3: Step Time =,    30.00,"TUBE-1",         24603,  -3.50742E-03,  -3.56342E-03,         1.875,NA,NA,"",   5.02998E-03,            0.,       1.87503,   29.9841E-06,   2.66489E+03
C:/ALETube/PressureUpdate/LargeStep/DeformErode/JobErode.odb,Step-1,Increment      3: Step Time =,    30.00,"TUBE-1",         24767,  -3.50742E-03,  -3.56342E-03,       1.88750,NA,NA,"",   5.03007E-03,  -433.681E-21,       1.88753,   30.0699E-06,   2.68272E+03
C:/ALETube/PressureUpdate/LargeStep/DeformErode/JobErode.odb,Step-1,Increment      3: Step Time =,    30.00,"TUBE-1",         24826,  -2.92791E-03,  -4.05307E-03,       1.88750,NA,NA,"",   5.03010E-03,            0.,       1.88753,   30.0983E-06,   2.68626E+03
C:/ALETube/PressureUpdate/LargeStep/DeformErode/JobErode.odb,Step-1,Increment      3: Step Time =,    30.00,"TUBE-1",         24990,  -2.92791E-03,  -4.05307E-03,       1.90000,NA,NA,"",   5.03018E-03,            0.,       1.90003,   30.1841E-06,   2.70411E+03
C:/ALETube/PressureUpdate/LargeStep/DeformErode/JobErode.odb,Step-1,Increment      3: Step Time =,    30.00,"TUBE-1",         24931,  -3.50742E-03,  -3.56342E-03,       1.90000,NA,NA,"",   5.03016E-03,            0.,       1.90003,   30.1556E-06,   2.70055E+03
C:/ALETube/PressureUpdate/LargeStep/DeformErode/JobErode.odb,Step-1,Increment      3: Step Time =,    30.00,"TUBE-1",         25154,  -2.92791E-03,  -4.05307E-03,       1.91250,NA,NA,"",   5.03027E-03,            0.,       1.91252,   30.2699E-06,   2.72197E+03
C:/ALETube/PressureUpdate/LargeStep/DeformErode/JobErode.odb,Step-1,Increment      3: Step Time =,    30.00,"TUBE-1",         25095,  -3.50742E-03,  -3.56342E-03,       1.91250,NA,NA,"",   5.03024E-03,   433.681E-21,       1.91252,   30.2414E-06,   2.71838E+03
C:/ALETube/PressureUpdate/LargeStep/DeformErode/JobErode.odb,Step-1,Increment      3: Step Time =,    30.00,"TUBE-1",         25318,  -2.92791E-03,  -4.05307E-03,       1.92500,NA,NA,"",   5.03036E-03,  -433.681E-21,       1.92502,   30.3557E-06,   2.73983E+03
C:/ALETube/PressureUpdate/LargeStep/DeformErode/JobErode.odb,Step-1,Increment      3: Step Time =,    30.00,"TUBE-1",         25259,  -3.50742E-03,  -3.56342E-03,       1.92500,NA,NA,"",   5.03033E-03,            0.,       1.92502,   30.3272E-06,   2.73621E+03
C:/ALETube/PressureUpdate/LargeStep/DeformErode/JobErode.odb,Step-1,Increment      3: Step Time =,    30.00,"TUBE-1",         25482,  -2.92791E-03,  -4.05307E-03,        1.9375,NA,NA,"",   5.03044E-03,   433.681E-21,       1.93752,   30.4415E-06,   2.75766E+03
C:/ALETube/PressureUpdate/LargeStep/DeformErode/JobErode.odb,Step-1,Increment      3: Step Time =,    30.00,"TUBE-1",         25423,  -3.50742E-03,  -3.56342E-03,        1.9375,NA,NA,"",   5.03041E-03,            0.,       1.93752,   30.4130E-06,   2.75403E+03
C:/ALETube/PressureUpdate/LargeStep/DeformErode/JobErode.odb,Step-1,Increment      3: Step Time =,    30.00,"TUBE-1",         25587,  -3.50742E-03,  -3.56342E-03,       1.95000,NA,NA,"",   5.03050E-03,            0.,       1.95001,   30.4990E-06,   2.77192E+03
C:/ALETube/PressureUpdate/LargeStep/DeformErode/JobErode.odb,Step-1,Increment      3: Step Time =,    30.00,"TUBE-1",         25646,  -2.92791E-03,  -4.05307E-03,       1.95000,NA,NA,"",   5.03053E-03,            0.,       1.95001,   30.5275E-06,   2.77559E+03
C:/ALETube/PressureUpdate/LargeStep/DeformErode/JobErode.odb,Step-1,Increment      3: Step Time =,    30.00,"TUBE-1",         25810,  -2.92791E-03,  -4.05307E-03,       1.96250,NA,NA,"",   5.03061E-03,   433.681E-21,       1.96251,   30.6128E-06,   2.79325E+03
C:/ALETube/PressureUpdate/LargeStep/DeformErode/JobErode.odb,Step-1,Increment      3: Step Time =,    30.00,"TUBE-1",         25751,  -3.50742E-03,  -3.56342E-03,       1.96250,NA,NA,"",   5.03058E-03,            0.,       1.96251,   30.5844E-06,   2.78961E+03
C:/ALETube/PressureUpdate/LargeStep/DeformErode/JobErode.odb,Step-1,Increment      3: Step Time =,    30.00,"TUBE-1",         25974,  -2.92791E-03,  -4.05307E-03,       1.97500,NA,NA,"",   5.03070E-03,            0.,       1.97501,   30.6982E-06,   2.81130E+03
C:/ALETube/PressureUpdate/LargeStep/DeformErode/JobErode.odb,Step-1,Increment      3: Step Time =,    30.00,"TUBE-1",         25915,  -3.50742E-03,  -3.56342E-03,       1.97500,NA,NA,"",   5.03067E-03,   433.681E-21,       1.97501,   30.6695E-06,   2.80750E+03
C:/ALETube/PressureUpdate/LargeStep/DeformErode/JobErode.odb,Step-1,Increment      3: Step Time =,    30.00,"TUBE-1",         26138,  -2.92791E-03,  -4.05307E-03,       1.98750,NA,NA,"",   5.03079E-03,            0.,       1.98750,   30.7904E-06,   2.82963E+03
C:/ALETube/PressureUpdate/LargeStep/DeformErode/JobErode.odb,Step-1,Increment      3: Step Time =,    30.00,"TUBE-1",         26079,  -3.50742E-03,  -3.56342E-03,       1.98750,NA,NA,"",   5.03076E-03,  -433.681E-21,       1.98750,   30.7624E-06,   2.82637E+03
C:/ALETube/PressureUpdate/LargeStep/DeformErode/JobErode.odb,Step-1,Increment      3: Step Time =,    30.00,"TUBE-1",         26302,  -2.92791E-03,  -4.05307E-03,            2.,NA,NA,"",   5.03083E-03,  -433.681E-21,            2.,   30.8323E-06,   2.83520E+03
C:/ALETube/PressureUpdate/LargeStep/DeformErode/JobErode.odb,Step-1,Increment      3: Step Time =,    30.00,"TUBE-1",         26243,  -3.50742E-03,  -3.56342E-03,            2.,NA,NA,"",   5.03082E-03,            0.,            2.,   30.8201E-06,   2.83851E+03
C:/ALETube/PressureUpdate/LargeStep/DeformErode/JobErode.odb,Step-1,Increment      4: Step Time =,    40.00,"TUBE-1",            62,  -2.92791E-03,  -4.05307E-03,            0.,NA,NA,"",   5.05134E-03,            0.,   611.793E-06,   51.3422E-06,       6.26753
C:/ALETube/PressureUpdate/LargeStep/DeformErode/JobErode.odb,Step-1,Increment      4: Step Time =,    40.00,"TUBE-1",             3,  -3.50742E-03,  -3.56342E-03,            0.,NA,NA,"",   5.05132E-03,   433.681E-21,   611.789E-06,   51.3222E-06,       6.22957
C:/ALETube/PressureUpdate/LargeStep/DeformErode/JobErode.odb,Step-1,Increment      4: Step Time =,    40.00,"TUBE-1",           226,  -2.92791E-03,  -4.05307E-03,   12.5000E-03,NA,NA,"",   5.05145E-03,            0.,   13.0603E-03,   51.4510E-06,       36.3306
C:/ALETube/PressureUpdate/LargeStep/DeformErode/JobErode.odb,Step-1,Increment      4: Step Time =,    40.00,"TUBE-1",           167,  -3.50742E-03,  -3.56342E-03,   12.5000E-03,NA,NA,"",   5.05141E-03,   433.681E-21,   13.0604E-03,   51.4115E-06,       36.2992
C:/ALETube/PressureUpdate/LargeStep/DeformErode/JobErode.odb,Step-1,Increment      4: Step Time =,    40.00,"TUBE-1",           331,  -3.50742E-03,  -3.56342E-03,   25.0000E-03,NA,NA,"",   5.05157E-03,            0.,   25.5605E-03,   51.5740E-06,       71.2304
C:/ALETube/PressureUpdate/LargeStep/DeformErode/JobErode.odb,Step-1,Increment      4: Step Time =,    40.00,"TUBE-1",           390,  -2.92791E-03,  -4.05307E-03,   25.0000E-03,NA,NA,"",   5.05161E-03,            0.,   25.5605E-03,   51.6136E-06,       71.3239
C:/ALETube/PressureUpdate/LargeStep/DeformErode/JobErode.odb,Step-1,Increment      4: Step Time =,    40.00,"TUBE-1",           554,  -2.92791E-03,  -4.05307E-03,   37.5000E-03,NA,NA,"",   5.05178E-03,            0.,   38.0604E-03,   51.7803E-06,       106.265
C:/ALETube/PressureUpdate/LargeStep/DeformErode/JobErode.odb,Step-1,Increment      4: Step Time =,    40.00,"TUBE-1",           495,  -3.50742E-03,  -3.56342E-03,   37.5000E-03,NA,NA,"",   5.05174E-03,            0.,   38.0604E-03,   51.7407E-06,       106.124
C:/ALETube/PressureUpdate/LargeStep/DeformErode/JobErode.odb,Step-1,Increment      4: Step Time =,    40.00,"TUBE-1",           718,  -2.92791E-03,  -4.05307E-03,   50.0000E-03,NA,NA,"",   5.05195E-03,   433.681E-21,   50.5603E-03,   51.9499E-06,       141.952
C:/ALETube/PressureUpdate/LargeStep/DeformErode/JobErode.odb,Step-1,Increment      4: Step Time =,    40.00,"TUBE-1",           659,  -3.50742E-03,  -3.56342E-03,   50.0000E-03,NA,NA,"",   5.05191E-03,            0.,   50.5603E-03,   51.9102E-06,       141.762
C:/ALETube/PressureUpdate/LargeStep/DeformErode/JobErode.odb,Step-1,Increment      4: Step Time =,    40.00,"TUBE-1",           823,  -3.50742E-03,  -3.56342E-03,      62.5E-03,NA,NA,"",   5.05208E-03,            0.,   63.0601E-03,   52.0786E-06,       177.187
C:/ALETube/PressureUpdate/LargeStep/DeformErode/JobErode.odb,Step-1,Increment      4: Step Time =,    40.00,"TUBE-1",           882,  -2.92791E-03,  -4.05307E-03,      62.5E-03,NA,NA,"",   5.05212E-03,  -433.681E-21,   63.0601E-03,   52.1183E-06,       177.423
C:/ALETube/PressureUpdate/LargeStep/DeformErode/JobErode.odb,Step-1,Increment      4: Step Time =,    40.00,"TUBE-1",          1046,  -2.92791E-03,  -4.05307E-03,   75.0000E-03,NA,NA,"",   5.05229E-03,            0.,   75.5598E-03,   52.2869E-06,       212.894
C:/ALETube/PressureUpdate/LargeStep/DeformErode/JobErode.odb,Step-1,Increment      4: Step Time =,    40.00,"TUBE-1",           987,  -3.50742E-03,  -3.56342E-03,   75.0000E-03,NA,NA,"",   5.05225E-03,  -433.681E-21,   75.5598E-03,   52.2470E-06,       212.610
C:/ALETube/PressureUpdate/LargeStep/DeformErode/JobErode.odb,Step-1,Increment      4: Step Time =,    40.00,"TUBE-1",          1210,  -2.92791E-03,  -4.05307E-03,   87.5000E-03,NA,NA,"",   5.05246E-03,            0.,   88.0595E-03,   52.4555E-06,       248.388
C:/ALETube/PressureUpdate/LargeStep/DeformErode/JobErode.odb,Step-1,Increment      4: Step Time =,    40.00,"TUBE-1",          1151,  -3.50742E-03,  -3.56342E-03,   87.5000E-03,NA,NA,"",   5.05242E-03,            0.,   88.0595E-03,   52.4156E-06,       248.056
C:/ALETube/PressureUpdate/LargeStep/DeformErode/JobErode.odb,Step-1,Increment      4: Step Time =,    40.00,"TUBE-1",          1374,  -2.92791E-03,  -4.05307E-03,   100.000E-03,NA,NA,"",   5.05262E-03,            0.,   100.559E-03,   52.6241E-06,       283.871
C:/ALETube/PressureUpdate/LargeStep/DeformErode/JobErode.odb,Step-1,Increment      4: Step Time =,    40.00,"TUBE-1",          1315,  -3.50742E-03,  -3.56342E-03,   100.000E-03,NA,NA,"",   5.05258E-03,            0.,   100.559E-03,   52.5841E-06,       283.492
C:/ALETube/PressureUpdate/LargeStep/DeformErode/JobErode.odb,Step-1,Increment      4: Step Time =,    40.00,"TUBE-1",          1538,  -2.92791E-03,  -4.05307E-03,   112.500E-03,NA,NA,"",   5.05279E-03,            0.,   113.059E-03,   52.7927E-06,       319.357
C:/ALETube/PressureUpdate/LargeStep/DeformErode/JobErode.odb,Step-1,Increment      4: Step Time =,    40.00,"TUBE-1",          1479,  -3.50742E-03,  -3.56342E-03,   112.500E-03,NA,NA,"",   5.05275E-03,   433.681E-21,   113.059E-03,   52.7526E-06,       318.931
C:/ALETube/PressureUpdate/LargeStep/DeformErode/JobErode.odb,Step-1,Increment      4: Step Time =,    40.00,"TUBE-1",          1643,  -3.50742E-03,  -3.56342E-03,      125.E-03,NA,NA,"",   5.05292E-03,            0.,   125.558E-03,   52.9212E-06,       354.368
C:/ALETube/PressureUpdate/LargeStep/DeformErode/JobErode.odb,Step-1,Increment      4: Step Time =,    40.00,"TUBE-1",          1702,  -2.92791E-03,  -4.05307E-03,      125.E-03,NA,NA,"",   5.05296E-03,            0.,   125.558E-03,   52.9613E-06,       354.841
C:/ALETube/PressureUpdate/LargeStep/DeformErode/JobErode.odb,Step-1,Increment      4: Step Time =,    40.00,"TUBE-1",          1866,  -2.92791E-03,  -4.05307E-03,   137.500E-03,NA,NA,"",   5.05313E-03,            0.,   138.058E-03,   53.1299E-06,       390.326
C:/ALETube/PressureUpdate/LargeStep/DeformErode/JobErode.odb,Step-1,Increment      4: Step Time =,    40.00,"TUBE-1",          1807,  -3.50742E-03,  -3.56342E-03,   137.500E-03,NA,NA,"",   5.05309E-03,  -433.681E-21,   138.058E-03,   53.0897E-06,       389.805
C:/ALETube/PressureUpdate/LargeStep/DeformErode/JobErode.odb,Step-1,Increment      4: Step Time =,    40.00,"TUBE-1",          2030,  -2.92791E-03,  -4.05307E-03,   150.000E-03,NA,NA,"",   5.05330E-03,   433.681E-21,   150.557E-03,   53.2984E-06,       425.810
C:/ALETube/PressureUpdate/LargeStep/DeformErode/JobErode.odb,Step-1,Increment      4: Step Time =,    40.00,"TUBE-1",          1971,  -3.50742E-03,  -3.56342E-03,   150.000E-03,NA,NA,"",   5.05326E-03,            0.,   150.557E-03,   53.2582E-06,       425.242
C:/ALETube/PressureUpdate/LargeStep/DeformErode/JobErode.odb,Step-1,Increment      4: Step Time =,    40.00,"TUBE-1",          2194,  -2.92791E-03,  -4.05307E-03,   162.500E-03,NA,NA,"",   5.05347E-03,   433.681E-21,   163.057E-03,   53.4671E-06,       461.294
C:/ALETube/PressureUpdate/LargeStep/DeformErode/JobErode.odb,Step-1,Increment      4: Step Time =,    40.00,"TUBE-1",          2135,  -3.50742E-03,  -3.56342E-03,   162.500E-03,NA,NA,"",   5.05343E-03,            0.,   163.057E-03,   53.4268E-06,       460.678
C:/ALETube/PressureUpdate/LargeStep/DeformErode/JobErode.odb,Step-1,Increment      4: Step Time =,    40.00,"TUBE-1",          2358,  -2.92791E-03,  -4.05307E-03,   175.000E-03,NA,NA,"",   5.05364E-03,  -433.681E-21,   175.556E-03,   53.6357E-06,       496.777
C:/ALETube/PressureUpdate/LargeStep/DeformErode/JobErode.odb,Step-1,Increment      4: Step Time =,    40.00,"TUBE-1",          2299,  -3.50742E-03,  -3.56342E-03,   175.000E-03,NA,NA,"",   5.05360E-03,   433.681E-21,   175.556E-03,   53.5953E-06,       496.114
C:/ALETube/PressureUpdate/LargeStep/DeformErode/JobErode.odb,Step-1,Increment      4: Step Time =,    40.00,"TUBE-1",          2463,  -3.50742E-03,  -3.56342E-03,     187.5E-03,NA,NA,"",   5.05376E-03,            0.,   188.056E-03,   53.7639E-06,       531.550
C:/ALETube/PressureUpdate/LargeStep/DeformErode/JobErode.odb,Step-1,Increment      4: Step Time =,    40.00,"TUBE-1",          2522,  -2.92791E-03,  -4.05307E-03,     187.5E-03,NA,NA,"",   5.05380E-03,  -433.681E-21,   188.056E-03,   53.8043E-06,       532.260
C:/ALETube/PressureUpdate/LargeStep/DeformErode/JobErode.odb,Step-1,Increment      4: Step Time =,    40.00,"TUBE-1",          2686,  -2.92791E-03,  -4.05307E-03,   200.000E-03,NA,NA,"",   5.05397E-03,            0.,   200.555E-03,   53.9729E-06,       567.743
C:/ALETube/PressureUpdate/LargeStep/DeformErode/JobErode.odb,Step-1,Increment      4: Step Time =,    40.00,"TUBE-1",          2627,  -3.50742E-03,  -3.56342E-03,   200.000E-03,NA,NA,"",   5.05393E-03,   433.681E-21,   200.555E-03,   53.9324E-06,       566.985
C:/ALETube/PressureUpdate/LargeStep/DeformErode/JobErode.odb,Step-1,Increment      4: Step Time =,    40.00,"TUBE-1",          2850,  -2.92791E-03,  -4.05307E-03,   212.500E-03,NA,NA,"",   5.05414E-03,            0.,   213.054E-03,   54.1415E-06,       603.225
C:/ALETube/PressureUpdate/LargeStep/DeformErode/JobErode.odb,Step-1,Increment      4: Step Time =,    40.00,"TUBE-1",          2791,  -3.50742E-03,  -3.56342E-03,   212.500E-03,NA,NA,"",   5.05410E-03,   433.681E-21,   213.054E-03,   54.1010E-06,       602.420
C:/ALETube/PressureUpdate/LargeStep/DeformErode/JobErode.odb,Step-1,Increment      4: Step Time =,    40.00,"TUBE-1",          3014,  -2.92791E-03,  -4.05307E-03,   225.000E-03,NA,NA,"",   5.05431E-03,            0.,   225.553E-03,   54.3101E-06,       638.706
C:/ALETube/PressureUpdate/LargeStep/DeformErode/JobErode.odb,Step-1,Increment      4: Step Time =,    40.00,"TUBE-1",          2955,  -3.50742E-03,  -3.56342E-03,   225.000E-03,NA,NA,"",   5.05427E-03,   433.681E-21,   225.553E-03,   54.2695E-06,       637.854
C:/ALETube/PressureUpdate/LargeStep/DeformErode/JobErode.odb,Step-1,Increment      4: Step Time =,    40.00,"TUBE-1",          3178,  -2.92791E-03,  -4.05307E-03,   237.500E-03,NA,NA,"",   5.05448E-03,            0.,   238.053E-03,   54.4788E-06,       674.187
C:/ALETube/PressureUpdate/LargeStep/DeformErode/JobErode.odb,Step-1,Increment      4: Step Time =,    40.00,"TUBE-1",          3119,  -3.50742E-03,  -3.56342E-03,   237.500E-03,NA,NA,"",   5.05444E-03,   433.681E-21,   238.053E-03,   54.4381E-06,       673.288
C:/ALETube/PressureUpdate/LargeStep/DeformErode/JobErode.odb,Step-1,Increment      4: Step Time =,    40.00,"TUBE-1",          3283,  -3.50742E-03,  -3.56342E-03,      250.E-03,NA,NA,"",   5.05461E-03,            0.,   250.552E-03,   54.6067E-06,       708.721
C:/ALETube/PressureUpdate/LargeStep/DeformErode/JobErode.odb,Step-1,Increment      4: Step Time =,    40.00,"TUBE-1",          3342,  -2.92791E-03,  -4.05307E-03,      250.E-03,NA,NA,"",   5.05465E-03,            0.,   250.552E-03,   54.6474E-06,       709.668
C:/ALETube/PressureUpdate/LargeStep/DeformErode/JobErode.odb,Step-1,Increment      4: Step Time =,    40.00,"TUBE-1",          3506,  -2.92791E-03,  -4.05307E-03,   262.500E-03,NA,NA,"",   5.05482E-03,            0.,   263.051E-03,   54.8160E-06,       745.148
C:/ALETube/PressureUpdate/LargeStep/DeformErode/JobErode.odb,Step-1,Increment      4: Step Time =,    40.00,"TUBE-1",          3447,  -3.50742E-03,  -3.56342E-03,   262.500E-03,NA,NA,"",   5.05478E-03,            0.,   263.051E-03,   54.7752E-06,       744.154
C:/ALETube/PressureUpdate/LargeStep/DeformErode/JobErode.odb,Step-1,Increment      4: Step Time =,    40.00,"TUBE-1",          3670,  -2.92791E-03,  -4.05307E-03,   275.000E-03,NA,NA,"",   5.05498E-03,            0.,   275.550E-03,   54.9846E-06,       780.628
C:/ALETube/PressureUpdate/LargeStep/DeformErode/JobErode.odb,Step-1,Increment      4: Step Time =,    40.00,"TUBE-1",          3611,  -3.50742E-03,  -3.56342E-03,   275.000E-03,NA,NA,"",   5.05494E-03,  -433.681E-21,   275.550E-03,   54.9438E-06,       779.586
C:/ALETube/PressureUpdate/LargeStep/DeformErode/JobErode.odb,Step-1,Increment      4: Step Time =,    40.00,"TUBE-1",          3834,  -2.92791E-03,  -4.05307E-03,   287.500E-03,NA,NA,"",   5.05515E-03,            0.,   288.049E-03,   55.1533E-06,       816.107
C:/ALETube/PressureUpdate/LargeStep/DeformErode/JobErode.odb,Step-1,Increment      4: Step Time =,    40.00,"TUBE-1",          3775,  -3.50742E-03,  -3.56342E-03,   287.500E-03,NA,NA,"",   5.05511E-03,            0.,   288.049E-03,   55.1124E-06,       815.018
C:/ALETube/PressureUpdate/LargeStep/DeformErode/JobErode.odb,Step-1,Increment      4: Step Time =,    40.00,"TUBE-1",          3998,  -2.92791E-03,  -4.05307E-03,   300.000E-03,NA,NA,"",   5.05532E-03,  -188.736E-12,   300.548E-03,   55.3219E-06,       851.586
C:/ALETube/PressureUpdate/LargeStep/DeformErode/JobErode.odb,Step-1,Increment      4: Step Time =,    40.00,"TUBE-1",          3939,  -3.50742E-03,  -3.56342E-03,   300.000E-03,NA,NA,"",   5.05528E-03,  -433.681E-21,   300.548E-03,   55.2810E-06,       850.450
C:/ALETube/PressureUpdate/LargeStep/DeformErode/JobErode.odb,Step-1,Increment      4: Step Time =,    40.00,"TUBE-1",          4103,  -3.50742E-03,  -3.56342E-03,     312.5E-03,NA,NA,"",   5.05545E-03,            0.,   313.047E-03,   55.4496E-06,       885.881
C:/ALETube/PressureUpdate/LargeStep/DeformErode/JobErode.odb,Step-1,Increment      4: Step Time =,    40.00,"TUBE-1",          4162,  -2.92791E-03,  -4.05307E-03,     312.5E-03,NA,NA,"",   5.05549E-03,            0.,   313.047E-03,   55.4906E-06,       887.064
C:/ALETube/PressureUpdate/LargeStep/DeformErode/JobErode.odb,Step-1,Increment      4: Step Time =,    40.00,"TUBE-1",          4326,  -2.92791E-03,  -4.05307E-03,   325.000E-03,NA,NA,"",   5.05566E-03,            0.,   325.546E-03,   55.6592E-06,       922.542
C:/ALETube/PressureUpdate/LargeStep/DeformErode/JobErode.odb,Step-1,Increment      4: Step Time =,    40.00,"TUBE-1",          4267,  -3.50742E-03,  -3.56342E-03,   325.000E-03,NA,NA,"",   5.05562E-03,            0.,   325.546E-03,   55.6182E-06,       921.311
C:/ALETube/PressureUpdate/LargeStep/DeformErode/JobErode.odb,Step-1,Increment      4: Step Time =,    40.00,"TUBE-1",          4490,  -2.92791E-03,  -4.05307E-03,   337.500E-03,NA,NA,"",   5.05583E-03,            0.,   338.045E-03,   55.8279E-06,       958.020
C:/ALETube/PressureUpdate/LargeStep/DeformErode/JobErode.odb,Step-1,Increment      4: Step Time =,    40.00,"TUBE-1",          4431,  -3.50742E-03,  -3.56342E-03,   337.500E-03,NA,NA,"",   5.05579E-03,            0.,   338.045E-03,   55.7868E-06,       956.741
C:/ALETube/PressureUpdate/LargeStep/DeformErode/JobErode.odb,Step-1,Increment      4: Step Time =,    40.00,"TUBE-1",          4654,  -2.92791E-03,  -4.05307E-03,   350.000E-03,NA,NA,"",   5.05600E-03,            0.,   350.543E-03,   55.9965E-06,       993.496
C:/ALETube/PressureUpdate/LargeStep/DeformErode/JobErode.odb,Step-1,Increment      4: Step Time =,    40.00,"TUBE-1",          4595,  -3.50742E-03,  -3.56342E-03,   350.000E-03,NA,NA,"",   5.05596E-03,            0.,   350.543E-03,   55.9554E-06,       992.171
C:/ALETube/PressureUpdate/LargeStep/DeformErode/JobErode.odb,Step-1,Increment      4: Step Time =,    40.00,"TUBE-1",          4818,  -2.92791E-03,  -4.05307E-03,   362.500E-03,NA,NA,"",   5.05617E-03,            0.,   363.042E-03,   56.1652E-06,   1.02897E+03
C:/ALETube/PressureUpdate/LargeStep/DeformErode/JobErode.odb,Step-1,Increment      4: Step Time =,    40.00,"TUBE-1",          4759,  -3.50742E-03,  -3.56342E-03,   362.500E-03,NA,NA,"",   5.05612E-03,            0.,   363.042E-03,   56.1240E-06,   1.02760E+03
C:/ALETube/PressureUpdate/LargeStep/DeformErode/JobErode.odb,Step-1,Increment      4: Step Time =,    40.00,"TUBE-1",          4923,  -3.50742E-03,  -3.56342E-03,      375.E-03,NA,NA,"",   5.05629E-03,            0.,   375.541E-03,   56.2926E-06,   1.06303E+03
C:/ALETube/PressureUpdate/LargeStep/DeformErode/JobErode.odb,Step-1,Increment      4: Step Time =,    40.00,"TUBE-1",          4982,  -2.92791E-03,  -4.05307E-03,      375.E-03,NA,NA,"",   5.05633E-03,            0.,   375.541E-03,   56.3339E-06,   1.06445E+03
C:/ALETube/PressureUpdate/LargeStep/DeformErode/JobErode.odb,Step-1,Increment      4: Step Time =,    40.00,"TUBE-1",          5146,  -2.92791E-03,  -4.05307E-03,   387.500E-03,NA,NA,"",   5.05650E-03,            0.,   388.039E-03,   56.5025E-06,   1.09992E+03
C:/ALETube/PressureUpdate/LargeStep/DeformErode/JobErode.odb,Step-1,Increment      4: Step Time =,    40.00,"TUBE-1",          5087,  -3.50742E-03,  -3.56342E-03,   387.500E-03,NA,NA,"",   5.05646E-03,            0.,   388.039E-03,   56.4612E-06,   1.09846E+03
C:/ALETube/PressureUpdate/LargeStep/DeformErode/JobErode.odb,Step-1,Increment      4: Step Time =,    40.00,"TUBE-1",          5310,  -2.92791E-03,  -4.05307E-03,   400.000E-03,NA,NA,"",   5.05667E-03,            0.,   400.538E-03,   56.6712E-06,   1.13540E+03
C:/ALETube/PressureUpdate/LargeStep/DeformErode/JobErode.odb,Step-1,Increment      4: Step Time =,    40.00,"TUBE-1",          5251,  -3.50742E-03,  -3.56342E-03,   400.000E-03,NA,NA,"",   5.05663E-03,            0.,   400.538E-03,   56.6298E-06,   1.13388E+03
C:/ALETube/PressureUpdate/LargeStep/DeformErode/JobErode.odb,Step-1,Increment      4: Step Time =,    40.00,"TUBE-1",          5474,  -2.92791E-03,  -4.05307E-03,   412.500E-03,NA,NA,"",   5.05684E-03,            0.,   413.037E-03,   56.8399E-06,   1.17087E+03
C:/ALETube/PressureUpdate/LargeStep/DeformErode/JobErode.odb,Step-1,Increment      4: Step Time =,    40.00,"TUBE-1",          5415,  -3.50742E-03,  -3.56342E-03,   412.500E-03,NA,NA,"",   5.05680E-03,  -163.327E-12,   413.037E-03,   56.7984E-06,   1.16931E+03
C:/ALETube/PressureUpdate/LargeStep/DeformErode/JobErode.odb,Step-1,Increment      4: Step Time =,    40.00,"TUBE-1",          5638,  -2.92791E-03,  -4.05307E-03,   425.000E-03,NA,NA,"",   5.05701E-03,            0.,   425.535E-03,   57.0086E-06,   1.20635E+03
C:/ALETube/PressureUpdate/LargeStep/DeformErode/JobErode.odb,Step-1,Increment      4: Step Time =,    40.00,"TUBE-1",          5579,  -3.50742E-03,  -3.56342E-03,   425.000E-03,NA,NA,"",   5.05697E-03,   433.681E-21,   425.535E-03,   56.9670E-06,   1.20474E+03
C:/ALETube/PressureUpdate/LargeStep/DeformErode/JobErode.odb,Step-1,Increment      4: Step Time =,    40.00,"TUBE-1",          5743,  -3.50742E-03,  -3.56342E-03,     437.5E-03,NA,NA,"",   5.05714E-03,            0.,   438.034E-03,   57.1356E-06,   1.24017E+03
C:/ALETube/PressureUpdate/LargeStep/DeformErode/JobErode.odb,Step-1,Increment      4: Step Time =,    40.00,"TUBE-1",          5802,  -2.92791E-03,  -4.05307E-03,     437.5E-03,NA,NA,"",   5.05718E-03,   433.681E-21,   438.034E-03,   57.1773E-06,   1.24182E+03
C:/ALETube/PressureUpdate/LargeStep/DeformErode/JobErode.odb,Step-1,Increment      4: Step Time =,    40.00,"TUBE-1",          5966,  -2.92791E-03,  -4.05307E-03,   450.000E-03,NA,NA,"",   5.05735E-03,  -433.681E-21,   450.532E-03,   57.3459E-06,   1.27729E+03
C:/ALETube/PressureUpdate/LargeStep/DeformErode/JobErode.odb,Step-1,Increment      4: Step Time =,    40.00,"TUBE-1",          5907,  -3.50742E-03,  -3.56342E-03,   450.000E-03,NA,NA,"",   5.05730E-03,            0.,   450.532E-03,   57.3043E-06,   1.27559E+03
C:/ALETube/PressureUpdate/LargeStep/DeformErode/JobErode.odb,Step-1,Increment      4: Step Time =,    40.00,"TUBE-1",          6130,  -2.92791E-03,  -4.05307E-03,   462.500E-03,NA,NA,"",   5.05751E-03,            0.,   463.031E-03,   57.5146E-06,   1.31277E+03
C:/ALETube/PressureUpdate/LargeStep/DeformErode/JobErode.odb,Step-1,Increment      4: Step Time =,    40.00,"TUBE-1",          6071,  -3.50742E-03,  -3.56342E-03,   462.500E-03,NA,NA,"",   5.05747E-03,            0.,   463.031E-03,   57.4729E-06,   1.31102E+03
C:/ALETube/PressureUpdate/LargeStep/DeformErode/JobErode.odb,Step-1,Increment      4: Step Time =,    40.00,"TUBE-1",          6294,  -2.92791E-03,  -4.05307E-03,   475.000E-03,NA,NA,"",   5.05768E-03,            0.,   475.529E-03,   57.6833E-06,   1.34824E+03
C:/ALETube/PressureUpdate/LargeStep/DeformErode/JobErode.odb,Step-1,Increment      4: Step Time =,    40.00,"TUBE-1",          6235,  -3.50742E-03,  -3.56342E-03,   475.000E-03,NA,NA,"",   5.05764E-03,            0.,   475.529E-03,   57.6415E-06,   1.34644E+03
C:/ALETube/PressureUpdate/LargeStep/DeformErode/JobErode.odb,Step-1,Increment      4: Step Time =,    40.00,"TUBE-1",          6458,  -2.92791E-03,  -4.05307E-03,   487.500E-03,NA,NA,"",   5.05785E-03,            0.,   488.027E-03,   57.8520E-06,   1.38371E+03
C:/ALETube/PressureUpdate/LargeStep/DeformErode/JobErode.odb,Step-1,Increment      4: Step Time =,    40.00,"TUBE-1",          6399,  -3.50742E-03,  -3.56342E-03,   487.500E-03,NA,NA,"",   5.05781E-03,            0.,   488.027E-03,   57.8102E-06,   1.38187E+03
C:/ALETube/PressureUpdate/LargeStep/DeformErode/JobErode.odb,Step-1,Increment      4: Step Time =,    40.00,"TUBE-1",          6563,  -3.50742E-03,  -3.56342E-03,      500.E-03,NA,NA,"",   5.05798E-03,            0.,   500.525E-03,   57.9788E-06,   1.41729E+03
C:/ALETube/PressureUpdate/LargeStep/DeformErode/JobErode.odb,Step-1,Increment      4: Step Time =,    40.00,"TUBE-1",          6622,  -2.92791E-03,  -4.05307E-03,      500.E-03,NA,NA,"",   5.05802E-03,            0.,   500.525E-03,   58.0207E-06,   1.41918E+03
C:/ALETube/PressureUpdate/LargeStep/DeformErode/JobErode.odb,Step-1,Increment      4: Step Time =,    40.00,"TUBE-1",          6786,  -2.92791E-03,  -4.05307E-03,   512.500E-03,NA,NA,"",   5.05819E-03,            0.,   513.024E-03,   58.1894E-06,   1.45465E+03
C:/ALETube/PressureUpdate/LargeStep/DeformErode/JobErode.odb,Step-1,Increment      4: Step Time =,    40.00,"TUBE-1",          6727,  -3.50742E-03,  -3.56342E-03,   512.500E-03,NA,NA,"",   5.05815E-03,   433.681E-21,   513.024E-03,   58.1475E-06,   1.45271E+03
C:/ALETube/PressureUpdate/LargeStep/DeformErode/JobErode.odb,Step-1,Increment      4: Step Time =,    40.00,"TUBE-1",          6950,  -2.92791E-03,  -4.05307E-03,   525.000E-03,NA,NA,"",   5.05836E-03,            0.,   525.522E-03,   58.3581E-06,   1.49012E+03
C:/ALETube/PressureUpdate/LargeStep/DeformErode/JobErode.odb,Step-1,Increment      4: Step Time =,    40.00,"TUBE-1",          6891,  -3.50742E-03,  -3.56342E-03,   525.000E-03,NA,NA,"",   5.05832E-03,            0.,   525.522E-03,   58.3161E-06,   1.48814E+03
C:/ALETube/PressureUpdate/LargeStep/DeformErode/JobErode.odb,Step-1,Increment      4: Step Time =,    40.00,"TUBE-1",          7114,  -2.92791E-03,  -4.05307E-03,   537.500E-03,NA,NA,"",   5.05853E-03,            0.,   538.020E-03,   58.5269E-06,   1.52559E+03
C:/ALETube/PressureUpdate/LargeStep/DeformErode/JobErode.odb,Step-1,Increment      4: Step Time =,    40.00,"TUBE-1",          7055,  -3.50742E-03,  -3.56342E-03,   537.500E-03,NA,NA,"",   5.05848E-03,  -433.681E-21,   538.020E-03,   58.4848E-06,   1.52356E+03
C:/ALETube/PressureUpdate/LargeStep/DeformErode/JobErode.odb,Step-1,Increment      4: Step Time =,    40.00,"TUBE-1",          7278,  -2.92791E-03,  -4.05307E-03,   550.000E-03,NA,NA,"",   5.05870E-03,            0.,   550.518E-03,   58.6956E-06,   1.56106E+03
C:/ALETube/PressureUpdate/LargeStep/DeformErode/JobErode.odb,Step-1,Increment      4: Step Time =,    40.00,"TUBE-1",          7219,  -3.50742E-03,  -3.56342E-03,   550.000E-03,NA,NA,"",   5.05865E-03,            0.,   550.518E-03,   58.6534E-06,   1.55898E+03
C:/ALETube/PressureUpdate/LargeStep/DeformErode/JobErode.odb,Step-1,Increment      4: Step Time =,    40.00,"TUBE-1",          7383,  -3.50742E-03,  -3.56342E-03,     562.5E-03,NA,NA,"",   5.05882E-03,            0.,   563.016E-03,   58.8221E-06,   1.59440E+03
C:/ALETube/PressureUpdate/LargeStep/DeformErode/JobErode.odb,Step-1,Increment      4: Step Time =,    40.00,"TUBE-1",          7442,  -2.92791E-03,  -4.05307E-03,     562.5E-03,NA,NA,"",   5.05886E-03,  -433.681E-21,   563.016E-03,   58.8643E-06,   1.59653E+03
C:/ALETube/PressureUpdate/LargeStep/DeformErode/JobErode.odb,Step-1,Increment      4: Step Time =,    40.00,"TUBE-1",          7606,  -2.92791E-03,  -4.05307E-03,   575.000E-03,NA,NA,"",   5.05903E-03,            0.,   575.514E-03,   59.0330E-06,   1.63200E+03
C:/ALETube/PressureUpdate/LargeStep/DeformErode/JobErode.odb,Step-1,Increment      4: Step Time =,    40.00,"TUBE-1",          7547,  -3.50742E-03,  -3.56342E-03,   575.000E-03,NA,NA,"",   5.05899E-03,            0.,   575.514E-03,   58.9907E-06,   1.62982E+03
C:/ALETube/PressureUpdate/LargeStep/DeformErode/JobErode.odb,Step-1,Increment      4: Step Time =,    40.00,"TUBE-1",          7770,  -2.92791E-03,  -4.05307E-03,   587.500E-03,NA,NA,"",   5.05920E-03,  -433.681E-21,   588.012E-03,   59.2017E-06,   1.66747E+03
C:/ALETube/PressureUpdate/LargeStep/DeformErode/JobErode.odb,Step-1,Increment      4: Step Time =,    40.00,"TUBE-1",          7711,  -3.50742E-03,  -3.56342E-03,   587.500E-03,NA,NA,"",   5.05916E-03,  -433.681E-21,   588.012E-03,   59.1594E-06,   1.66525E+03
C:/ALETube/PressureUpdate/LargeStep/DeformErode/JobErode.odb,Step-1,Increment      4: Step Time =,    40.00,"TUBE-1",          7934,  -2.92791E-03,  -4.05307E-03,   600.000E-03,NA,NA,"",   5.05937E-03,            0.,   600.510E-03,   59.3705E-06,   1.70294E+03
C:/ALETube/PressureUpdate/LargeStep/DeformErode/JobErode.odb,Step-1,Increment      4: Step Time =,    40.00,"TUBE-1",          7875,  -3.50742E-03,  -3.56342E-03,   600.000E-03,NA,NA,"",   5.05933E-03,   433.681E-21,   600.510E-03,   59.3281E-06,   1.70067E+03
C:/ALETube/PressureUpdate/LargeStep/DeformErode/JobErode.odb,Step-1,Increment      4: Step Time =,    40.00,"TUBE-1",          8098,  -2.92791E-03,  -4.05307E-03,   612.500E-03,NA,NA,"",   5.05954E-03,  -433.681E-21,   613.008E-03,   59.5392E-06,   1.73840E+03
C:/ALETube/PressureUpdate/LargeStep/DeformErode/JobErode.odb,Step-1,Increment      4: Step Time =,    40.00,"TUBE-1",          8039,  -3.50742E-03,  -3.56342E-03,   612.500E-03,NA,NA,"",   5.05950E-03,            0.,   613.008E-03,   59.4967E-06,   1.73609E+03
C:/ALETube/PressureUpdate/LargeStep/DeformErode/JobErode.odb,Step-1,Increment      4: Step Time =,    40.00,"TUBE-1",          8203,  -3.50742E-03,  -3.56342E-03,      625.E-03,NA,NA,"",   5.05967E-03,            0.,   625.506E-03,   59.6654E-06,   1.77151E+03
C:/ALETube/PressureUpdate/LargeStep/DeformErode/JobErode.odb,Step-1,Increment      4: Step Time =,    40.00,"TUBE-1",          8262,  -2.92791E-03,  -4.05307E-03,      625.E-03,NA,NA,"",   5.05971E-03,            0.,   625.506E-03,   59.7080E-06,   1.77387E+03
C:/ALETube/PressureUpdate/LargeStep/DeformErode/JobErode.odb,Step-1,Increment      4: Step Time =,    40.00,"TUBE-1",          8426,  -2.92791E-03,  -4.05307E-03,   637.500E-03,NA,NA,"",   5.05988E-03,   433.681E-21,   638.003E-03,   59.8767E-06,   1.80934E+03
C:/ALETube/PressureUpdate/LargeStep/DeformErode/JobErode.odb,Step-1,Increment      4: Step Time =,    40.00,"TUBE-1",          8367,  -3.50742E-03,  -3.56342E-03,   637.500E-03,NA,NA,"",   5.05983E-03,  -433.681E-21,   638.003E-03,   59.8341E-06,   1.80692E+03
C:/ALETube/PressureUpdate/LargeStep/DeformErode/JobErode.odb,Step-1,Increment      4: Step Time =,    40.00,"TUBE-1",          8590,  -2.92791E-03,  -4.05307E-03,   650.000E-03,NA,NA,"",   5.06005E-03,            0.,   650.501E-03,   60.0454E-06,   1.84480E+03
C:/ALETube/PressureUpdate/LargeStep/DeformErode/JobErode.odb,Step-1,Increment      4: Step Time =,    40.00,"TUBE-1",          8531,  -3.50742E-03,  -3.56342E-03,   650.000E-03,NA,NA,"",   5.06000E-03,  -433.681E-21,   650.501E-03,   60.0028E-06,   1.84234E+03
C:/ALETube/PressureUpdate/LargeStep/DeformErode/JobErode.odb,Step-1,Increment      4: Step Time =,    40.00,"TUBE-1",          8754,  -2.92791E-03,  -4.05307E-03,   662.500E-03,NA,NA,"",   5.06021E-03,            0.,   662.999E-03,   60.2142E-06,   1.88027E+03
C:/ALETube/PressureUpdate/LargeStep/DeformErode/JobErode.odb,Step-1,Increment      4: Step Time =,    40.00,"TUBE-1",          8695,  -3.50742E-03,  -3.56342E-03,   662.500E-03,NA,NA,"",   5.06017E-03,  -433.681E-21,   662.999E-03,   60.1715E-06,   1.87776E+03
C:/ALETube/PressureUpdate/LargeStep/DeformErode/JobErode.odb,Step-1,Increment      4: Step Time =,    40.00,"TUBE-1",          8918,  -2.92791E-03,  -4.05307E-03,   675.000E-03,NA,NA,"",   5.06038E-03,            0.,   675.497E-03,   60.3829E-06,   1.91573E+03
C:/ALETube/PressureUpdate/LargeStep/DeformErode/JobErode.odb,Step-1,Increment      4: Step Time =,    40.00,"TUBE-1",          8859,  -3.50742E-03,  -3.56342E-03,   675.000E-03,NA,NA,"",   5.06034E-03,            0.,   675.497E-03,   60.3402E-06,   1.91318E+03
C:/ALETube/PressureUpdate/LargeStep/DeformErode/JobErode.odb,Step-1,Increment      4: Step Time =,    40.00,"TUBE-1",          9023,  -3.50742E-03,  -3.56342E-03,     687.5E-03,NA,NA,"",   5.06051E-03,            0.,   687.994E-03,   60.5089E-06,   1.94860E+03
C:/ALETube/PressureUpdate/LargeStep/DeformErode/JobErode.odb,Step-1,Increment      4: Step Time =,    40.00,"TUBE-1",          9082,  -2.92791E-03,  -4.05307E-03,     687.5E-03,NA,NA,"",   5.06055E-03,   433.681E-21,   687.994E-03,   60.5517E-06,   1.95120E+03
C:/ALETube/PressureUpdate/LargeStep/DeformErode/JobErode.odb,Step-1,Increment      4: Step Time =,    40.00,"TUBE-1",          9246,  -2.92791E-03,  -4.05307E-03,   700.000E-03,NA,NA,"",   5.06072E-03,  -433.681E-21,   700.492E-03,   60.7205E-06,   1.98666E+03
C:/ALETube/PressureUpdate/LargeStep/DeformErode/JobErode.odb,Step-1,Increment      4: Step Time =,    40.00,"TUBE-1",          9187,  -3.50742E-03,  -3.56342E-03,   700.000E-03,NA,NA,"",   5.06068E-03,   433.681E-21,   700.492E-03,   60.6776E-06,   1.98401E+03
C:/ALETube/PressureUpdate/LargeStep/DeformErode/JobErode.odb,Step-1,Increment      4: Step Time =,    40.00,"TUBE-1",          9410,  -2.92791E-03,  -4.05307E-03,   712.500E-03,NA,NA,"",   5.06089E-03,            0.,   712.989E-03,   60.8892E-06,   2.02212E+03
C:/ALETube/PressureUpdate/LargeStep/DeformErode/JobErode.odb,Step-1,Increment      4: Step Time =,    40.00,"TUBE-1",          9351,  -3.50742E-03,  -3.56342E-03,   712.500E-03,NA,NA,"",   5.06085E-03,            0.,   712.989E-03,   60.8463E-06,   2.01943E+03
C:/ALETube/PressureUpdate/LargeStep/DeformErode/JobErode.odb,Step-1,Increment      4: Step Time =,    40.00,"TUBE-1",          9574,  -2.92791E-03,  -4.05307E-03,   725.000E-03,NA,NA,"",   5.06106E-03,            0.,   725.487E-03,   61.0580E-06,   2.05759E+03
C:/ALETube/PressureUpdate/LargeStep/DeformErode/JobErode.odb,Step-1,Increment      4: Step Time =,    40.00,"TUBE-1",          9515,  -3.50742E-03,  -3.56342E-03,   725.000E-03,NA,NA,"",   5.06102E-03,            0.,   725.487E-03,   61.0150E-06,   2.05484E+03
C:/ALETube/PressureUpdate/LargeStep/DeformErode/JobErode.odb,Step-1,Increment      4: Step Time =,    40.00,"TUBE-1",          9738,  -2.92791E-03,  -4.05307E-03,   737.500E-03,NA,NA,"",   5.06123E-03,            0.,   737.984E-03,   61.2268E-06,   2.09305E+03
C:/ALETube/PressureUpdate/LargeStep/DeformErode/JobErode.odb,Step-1,Increment      4: Step Time =,    40.00,"TUBE-1",          9679,  -3.50742E-03,  -3.56342E-03,   737.500E-03,NA,NA,"",   5.06118E-03,            0.,   737.984E-03,   61.1837E-06,   2.09026E+03
C:/ALETube/PressureUpdate/LargeStep/DeformErode/JobErode.odb,Step-1,Increment      4: Step Time =,    40.00,"TUBE-1",          9843,  -3.50742E-03,  -3.56342E-03,      750.E-03,NA,NA,"",   5.06135E-03,   433.681E-21,   750.482E-03,   61.3524E-06,   2.12567E+03
C:/ALETube/PressureUpdate/LargeStep/DeformErode/JobErode.odb,Step-1,Increment      4: Step Time =,    40.00,"TUBE-1",          9902,  -2.92791E-03,  -4.05307E-03,      750.E-03,NA,NA,"",   5.06140E-03,  -433.681E-21,   750.482E-03,   61.3955E-06,   2.12851E+03
C:/ALETube/PressureUpdate/LargeStep/DeformErode/JobErode.odb,Step-1,Increment      4: Step Time =,    40.00,"TUBE-1",         10066,  -2.92791E-03,  -4.05307E-03,   762.500E-03,NA,NA,"",   5.06156E-03,            0.,   762.979E-03,   61.5643E-06,   2.16397E+03
C:/ALETube/PressureUpdate/LargeStep/DeformErode/JobErode.odb,Step-1,Increment      4: Step Time =,    40.00,"TUBE-1",         10007,  -3.50742E-03,  -3.56342E-03,   762.500E-03,NA,NA,"",   5.06152E-03,   433.681E-21,   762.979E-03,   61.5211E-06,   2.16109E+03
C:/ALETube/PressureUpdate/LargeStep/DeformErode/JobErode.odb,Step-1,Increment      4: Step Time =,    40.00,"TUBE-1",         10230,  -2.92791E-03,  -4.05307E-03,   775.000E-03,NA,NA,"",   5.06173E-03,            0.,   775.476E-03,   61.7331E-06,   2.19943E+03
C:/ALETube/PressureUpdate/LargeStep/DeformErode/JobErode.odb,Step-1,Increment      4: Step Time =,    40.00,"TUBE-1",         10171,  -3.50742E-03,  -3.56342E-03,   775.000E-03,NA,NA,"",   5.06169E-03,            0.,   775.476E-03,   61.6899E-06,   2.19650E+03
C:/ALETube/PressureUpdate/LargeStep/DeformErode/JobErode.odb,Step-1,Increment      4: Step Time =,    40.00,"TUBE-1",         10394,  -2.92791E-03,  -4.05307E-03,   787.500E-03,NA,NA,"",   5.06190E-03,            0.,   787.974E-03,   61.9019E-06,   2.23489E+03
C:/ALETube/PressureUpdate/LargeStep/DeformErode/JobErode.odb,Step-1,Increment      4: Step Time =,    40.00,"TUBE-1",         10335,  -3.50742E-03,  -3.56342E-03,   787.500E-03,NA,NA,"",   5.06186E-03,            0.,   787.974E-03,   61.8586E-06,   2.23192E+03
C:/ALETube/PressureUpdate/LargeStep/DeformErode/JobErode.odb,Step-1,Increment      4: Step Time =,    40.00,"TUBE-1",         10558,  -2.92791E-03,  -4.05307E-03,   800.000E-03,NA,NA,"",   5.06207E-03,  -433.681E-21,   800.471E-03,   62.0707E-06,   2.27035E+03
C:/ALETube/PressureUpdate/LargeStep/DeformErode/JobErode.odb,Step-1,Increment      4: Step Time =,    40.00,"TUBE-1",         10499,  -3.50742E-03,  -3.56342E-03,   800.000E-03,NA,NA,"",   5.06203E-03,   433.681E-21,   800.471E-03,   62.0273E-06,   2.26733E+03
C:/ALETube/PressureUpdate/LargeStep/DeformErode/JobErode.odb,Step-1,Increment      4: Step Time =,    40.00,"TUBE-1",         10663,  -3.50742E-03,  -3.56342E-03,     812.5E-03,NA,NA,"",   5.06220E-03,            0.,   812.968E-03,   62.1960E-06,   2.30274E+03
C:/ALETube/PressureUpdate/LargeStep/DeformErode/JobErode.odb,Step-1,Increment      4: Step Time =,    40.00,"TUBE-1",         10722,  -2.92791E-03,  -4.05307E-03,     812.5E-03,NA,NA,"",   5.06224E-03,  -433.681E-21,   812.968E-03,   62.2395E-06,   2.30581E+03
C:/ALETube/PressureUpdate/LargeStep/DeformErode/JobErode.odb,Step-1,Increment      4: Step Time =,    40.00,"TUBE-1",         10886,  -2.92791E-03,  -4.05307E-03,   825.000E-03,NA,NA,"",   5.06241E-03,            0.,   825.465E-03,   62.4083E-06,   2.34127E+03
C:/ALETube/PressureUpdate/LargeStep/DeformErode/JobErode.odb,Step-1,Increment      4: Step Time =,    40.00,"TUBE-1",         10827,  -3.50742E-03,  -3.56342E-03,   825.000E-03,NA,NA,"",   5.06236E-03,            0.,   825.465E-03,   62.3648E-06,   2.33815E+03
C:/ALETube/PressureUpdate/LargeStep/DeformErode/JobErode.odb,Step-1,Increment      4: Step Time =,    40.00,"TUBE-1",         11050,  -2.92791E-03,  -4.05307E-03,   837.500E-03,NA,NA,"",   5.06258E-03,            0.,   837.962E-03,   62.5771E-06,   2.37673E+03
C:/ALETube/PressureUpdate/LargeStep/DeformErode/JobErode.odb,Step-1,Increment      4: Step Time =,    40.00,"TUBE-1",         10991,  -3.50742E-03,  -3.56342E-03,   837.500E-03,NA,NA,"",   5.06253E-03,            0.,   837.962E-03,   62.5335E-06,   2.37356E+03
C:/ALETube/PressureUpdate/LargeStep/DeformErode/JobErode.odb,Step-1,Increment      4: Step Time =,    40.00,"TUBE-1",         11214,  -2.92791E-03,  -4.05307E-03,   850.000E-03,NA,NA,"",   5.06275E-03,  -433.681E-21,   850.459E-03,   62.7459E-06,   2.41219E+03
C:/ALETube/PressureUpdate/LargeStep/DeformErode/JobErode.odb,Step-1,Increment      4: Step Time =,    40.00,"TUBE-1",         11155,  -3.50742E-03,  -3.56342E-03,   850.000E-03,NA,NA,"",   5.06270E-03,            0.,   850.459E-03,   62.7023E-06,   2.40897E+03
C:/ALETube/PressureUpdate/LargeStep/DeformErode/JobErode.odb,Step-1,Increment      4: Step Time =,    40.00,"TUBE-1",         11378,  -2.92791E-03,  -4.05307E-03,   862.500E-03,NA,NA,"",   5.06291E-03,            0.,   862.956E-03,   62.9147E-06,   2.44765E+03
C:/ALETube/PressureUpdate/LargeStep/DeformErode/JobErode.odb,Step-1,Increment      4: Step Time =,    40.00,"TUBE-1",         11319,  -3.50742E-03,  -3.56342E-03,   862.500E-03,NA,NA,"",   5.06287E-03,  -163.327E-12,   862.956E-03,   62.8710E-06,   2.44439E+03
C:/ALETube/PressureUpdate/LargeStep/DeformErode/JobErode.odb,Step-1,Increment      4: Step Time =,    40.00,"TUBE-1",         11483,  -3.50742E-03,  -3.56342E-03,      875.E-03,NA,NA,"",   5.06304E-03,            0.,   875.453E-03,   63.0398E-06,   2.47980E+03
C:/ALETube/PressureUpdate/LargeStep/DeformErode/JobErode.odb,Step-1,Increment      4: Step Time =,    40.00,"TUBE-1",         11542,  -2.92791E-03,  -4.05307E-03,      875.E-03,NA,NA,"",   5.06308E-03,   272.682E-12,   875.453E-03,   63.0835E-06,   2.48310E+03
C:/ALETube/PressureUpdate/LargeStep/DeformErode/JobErode.odb,Step-1,Increment      4: Step Time =,    40.00,"TUBE-1",         11706,  -2.92791E-03,  -4.05307E-03,   887.500E-03,NA,NA,"",   5.06325E-03,            0.,   887.950E-03,   63.2523E-06,   2.51856E+03
C:/ALETube/PressureUpdate/LargeStep/DeformErode/JobErode.odb,Step-1,Increment      4: Step Time =,    40.00,"TUBE-1",         11647,  -3.50742E-03,  -3.56342E-03,   887.500E-03,NA,NA,"",   5.06321E-03,            0.,   887.950E-03,   63.2085E-06,   2.51521E+03
C:/ALETube/PressureUpdate/LargeStep/DeformErode/JobErode.odb,Step-1,Increment      4: Step Time =,    40.00,"TUBE-1",         11870,  -2.92791E-03,  -4.05307E-03,   900.000E-03,NA,NA,"",   5.06342E-03,            0.,   900.447E-03,   63.4211E-06,   2.55402E+03
C:/ALETube/PressureUpdate/LargeStep/DeformErode/JobErode.odb,Step-1,Increment      4: Step Time =,    40.00,"TUBE-1",         11811,  -3.50742E-03,  -3.56342E-03,   900.000E-03,NA,NA,"",   5.06338E-03,            0.,   900.447E-03,   63.3773E-06,   2.55061E+03
C:/ALETube/PressureUpdate/LargeStep/DeformErode/JobErode.odb,Step-1,Increment      4: Step Time =,    40.00,"TUBE-1",         12034,  -2.92791E-03,  -4.05307E-03,   912.500E-03,NA,NA,"",   5.06359E-03,  -433.681E-21,   912.944E-03,   63.5900E-06,   2.58947E+03
C:/ALETube/PressureUpdate/LargeStep/DeformErode/JobErode.odb,Step-1,Increment      4: Step Time =,    40.00,"TUBE-1",         11975,  -3.50742E-03,  -3.56342E-03,   912.500E-03,NA,NA,"",   5.06355E-03,            0.,   912.944E-03,   63.5460E-06,   2.58602E+03
C:/ALETube/PressureUpdate/LargeStep/DeformErode/JobErode.odb,Step-1,Increment      4: Step Time =,    40.00,"TUBE-1",         12198,  -2.92791E-03,  -4.05307E-03,   925.000E-03,NA,NA,"",   5.06376E-03,            0.,   925.440E-03,   63.7588E-06,   2.62493E+03
C:/ALETube/PressureUpdate/LargeStep/DeformErode/JobErode.odb,Step-1,Increment      4: Step Time =,    40.00,"TUBE-1",         12139,  -3.50742E-03,  -3.56342E-03,   925.000E-03,NA,NA,"",   5.06371E-03,            0.,   925.440E-03,   63.7148E-06,   2.62143E+03
C:/ALETube/PressureUpdate/LargeStep/DeformErode/JobErode.odb,Step-1,Increment      4: Step Time =,    40.00,"TUBE-1",         12303,  -3.50742E-03,  -3.56342E-03,     937.5E-03,NA,NA,"",   5.06388E-03,            0.,   937.937E-03,   63.8836E-06,   2.65684E+03
C:/ALETube/PressureUpdate/LargeStep/DeformErode/JobErode.odb,Step-1,Increment      4: Step Time =,    40.00,"TUBE-1",         12362,  -2.92791E-03,  -4.05307E-03,     937.5E-03,NA,NA,"",   5.06393E-03,  -433.681E-21,   937.937E-03,   63.9276E-06,   2.66038E+03
C:/ALETube/PressureUpdate/LargeStep/DeformErode/JobErode.odb,Step-1,Increment      4: Step Time =,    40.00,"TUBE-1",         12526,  -2.92791E-03,  -4.05307E-03,   950.000E-03,NA,NA,"",   5.06410E-03,   433.681E-21,   950.434E-03,   64.0965E-06,   2.69584E+03
C:/ALETube/PressureUpdate/LargeStep/DeformErode/JobErode.odb,Step-1,Increment      4: Step Time =,    40.00,"TUBE-1",         12467,  -3.50742E-03,  -3.56342E-03,   950.000E-03,NA,NA,"",   5.06405E-03,            0.,   950.434E-03,   64.0524E-06,   2.69225E+03
C:/ALETube/PressureUpdate/LargeStep/DeformErode/JobErode.odb,Step-1,Increment      4: Step Time =,    40.00,"TUBE-1",         12690,  -2.92791E-03,  -4.05307E-03,   962.500E-03,NA,NA,"",   5.06427E-03,  -433.681E-21,   962.931E-03,   64.2653E-06,   2.73129E+03
C:/ALETube/PressureUpdate/LargeStep/DeformErode/JobErode.odb,Step-1,Increment      4: Step Time =,    40.00,"TUBE-1",         12631,  -3.50742E-03,  -3.56342E-03,   962.500E-03,NA,NA,"",   5.06422E-03,   433.681E-21,   962.931E-03,   64.2211E-06,   2.72765E+03
C:/ALETube/PressureUpdate/LargeStep/DeformErode/JobErode.odb,Step-1,Increment      4: Step Time =,    40.00,"TUBE-1",         12854,  -2.92791E-03,  -4.05307E-03,   975.000E-03,NA,NA,"",   5.06443E-03,   433.681E-21,   975.427E-03,   64.4341E-06,   2.76675E+03
C:/ALETube/PressureUpdate/LargeStep/DeformErode/JobErode.odb,Step-1,Increment      4: Step Time =,    40.00,"TUBE-1",         12795,  -3.50742E-03,  -3.56342E-03,   975.000E-03,NA,NA,"",   5.06439E-03,            0.,   975.427E-03,   64.3899E-06,   2.76306E+03
C:/ALETube/PressureUpdate/LargeStep/DeformErode/JobErode.odb,Step-1,Increment      4: Step Time =,    40.00,"TUBE-1",         13018,  -2.92791E-03,  -4.05307E-03,   987.500E-03,NA,NA,"",   5.06460E-03,            0.,   987.924E-03,   64.6030E-06,   2.80220E+03
C:/ALETube/PressureUpdate/LargeStep/DeformErode/JobErode.odb,Step-1,Increment      4: Step Time =,    40.00,"TUBE-1",         12959,  -3.50742E-03,  -3.56342E-03,   987.500E-03,NA,NA,"",   5.06456E-03,            0.,   987.924E-03,   64.5587E-06,   2.79847E+03
C:/ALETube/PressureUpdate/LargeStep/DeformErode/JobErode.odb,Step-1,Increment      4: Step Time =,    40.00,"TUBE-1",         13123,  -3.50742E-03,  -3.56342E-03,            1.,NA,NA,"",   5.06473E-03,            0.,       1.00042,   64.7275E-06,   2.83387E+03
C:/ALETube/PressureUpdate/LargeStep/DeformErode/JobErode.odb,Step-1,Increment      4: Step Time =,    40.00,"TUBE-1",         13182,  -2.92791E-03,  -4.05307E-03,            1.,NA,NA,"",   5.06477E-03,  -433.681E-21,       1.00042,   64.7718E-06,   2.83765E+03
C:/ALETube/PressureUpdate/LargeStep/DeformErode/JobErode.odb,Step-1,Increment      4: Step Time =,    40.00,"TUBE-1",         13346,  -2.92791E-03,  -4.05307E-03,       1.01250,NA,NA,"",   5.06494E-03,  -433.681E-21,       1.01292,   64.9407E-06,   2.87310E+03
C:/ALETube/PressureUpdate/LargeStep/DeformErode/JobErode.odb,Step-1,Increment      4: Step Time =,    40.00,"TUBE-1",         13287,  -3.50742E-03,  -3.56342E-03,       1.01250,NA,NA,"",   5.06490E-03,            0.,       1.01292,   64.8963E-06,   2.86928E+03
C:/ALETube/PressureUpdate/LargeStep/DeformErode/JobErode.odb,Step-1,Increment      4: Step Time =,    40.00,"TUBE-1",         13510,  -2.92791E-03,  -4.05307E-03,       1.02500,NA,NA,"",   5.06511E-03,            0.,       1.02541,   65.1095E-06,   2.90856E+03
C:/ALETube/PressureUpdate/LargeStep/DeformErode/JobErode.odb,Step-1,Increment      4: Step Time =,    40.00,"TUBE-1",         13451,  -3.50742E-03,  -3.56342E-03,       1.02500,NA,NA,"",   5.06506E-03,            0.,       1.02541,   65.0651E-06,   2.90468E+03
C:/ALETube/PressureUpdate/LargeStep/DeformErode/JobErode.odb,Step-1,Increment      4: Step Time =,    40.00,"TUBE-1",         13615,  -3.50742E-03,  -3.56342E-03,       1.03750,NA,NA,"",   5.06523E-03,   433.681E-21,       1.03791,   65.2339E-06,   2.94009E+03
C:/ALETube/PressureUpdate/LargeStep/DeformErode/JobErode.odb,Step-1,Increment      4: Step Time =,    40.00,"TUBE-1",         13674,  -2.92791E-03,  -4.05307E-03,       1.03750,NA,NA,"",   5.06528E-03,            0.,       1.03791,   65.2784E-06,   2.94401E+03
C:/ALETube/PressureUpdate/LargeStep/DeformErode/JobErode.odb,Step-1,Increment      4: Step Time =,    40.00,"TUBE-1",         13838,  -2.92791E-03,  -4.05307E-03,       1.05000,NA,NA,"",   5.06545E-03,            0.,       1.05041,   65.4473E-06,   2.97946E+03
C:/ALETube/PressureUpdate/LargeStep/DeformErode/JobErode.odb,Step-1,Increment      4: Step Time =,    40.00,"TUBE-1",         13779,  -3.50742E-03,  -3.56342E-03,       1.05000,NA,NA,"",   5.06540E-03,            0.,       1.05041,   65.4027E-06,   2.97549E+03
C:/ALETube/PressureUpdate/LargeStep/DeformErode/JobErode.odb,Step-1,Increment      4: Step Time =,    40.00,"TUBE-1",         14002,  -2.92791E-03,  -4.05307E-03,        1.0625,NA,NA,"",   5.06562E-03,            0.,       1.06290,   65.6161E-06,   3.01491E+03
C:/ALETube/PressureUpdate/LargeStep/DeformErode/JobErode.odb,Step-1,Increment      4: Step Time =,    40.00,"TUBE-1",         13943,  -3.50742E-03,  -3.56342E-03,        1.0625,NA,NA,"",   5.06557E-03,   433.681E-21,       1.06290,   65.5715E-06,   3.01089E+03
C:/ALETube/PressureUpdate/LargeStep/DeformErode/JobErode.odb,Step-1,Increment      4: Step Time =,    40.00,"TUBE-1",         14107,  -3.50742E-03,  -3.56342E-03,       1.07500,NA,NA,"",   5.06574E-03,            0.,       1.07540,   65.7403E-06,   3.04629E+03
C:/ALETube/PressureUpdate/LargeStep/DeformErode/JobErode.odb,Step-1,Increment      4: Step Time =,    40.00,"TUBE-1",         14166,  -2.92791E-03,  -4.05307E-03,       1.07500,NA,NA,"",   5.06578E-03,  -433.681E-21,       1.07540,   65.7850E-06,   3.05036E+03
C:/ALETube/PressureUpdate/LargeStep/DeformErode/JobErode.odb,Step-1,Increment      4: Step Time =,    40.00,"TUBE-1",         14330,  -2.92791E-03,  -4.05307E-03,       1.08750,NA,NA,"",   5.06595E-03,            0.,       1.08789,   65.9539E-06,   3.08581E+03
C:/ALETube/PressureUpdate/LargeStep/DeformErode/JobErode.odb,Step-1,Increment      4: Step Time =,    40.00,"TUBE-1",         14271,  -3.50742E-03,  -3.56342E-03,       1.08750,NA,NA,"",   5.06591E-03,  -433.681E-21,       1.08789,   65.9091E-06,   3.08170E+03
C:/ALETube/PressureUpdate/LargeStep/DeformErode/JobErode.odb,Step-1,Increment      4: Step Time =,    40.00,"TUBE-1",         14494,  -2.92791E-03,  -4.05307E-03,       1.10000,NA,NA,"",   5.06612E-03,            0.,       1.10039,   66.1228E-06,   3.12126E+03
C:/ALETube/PressureUpdate/LargeStep/DeformErode/JobErode.odb,Step-1,Increment      4: Step Time =,    40.00,"TUBE-1",         14435,  -3.50742E-03,  -3.56342E-03,       1.10000,NA,NA,"",   5.06608E-03,   433.681E-21,       1.10039,   66.0779E-06,   3.11710E+03
C:/ALETube/PressureUpdate/LargeStep/DeformErode/JobErode.odb,Step-1,Increment      4: Step Time =,    40.00,"TUBE-1",         14658,  -2.92791E-03,  -4.05307E-03,       1.11250,NA,NA,"",   5.06629E-03,   433.681E-21,       1.11289,   66.2916E-06,   3.15670E+03
C:/ALETube/PressureUpdate/LargeStep/DeformErode/JobErode.odb,Step-1,Increment      4: Step Time =,    40.00,"TUBE-1",         14599,  -3.50742E-03,  -3.56342E-03,       1.11250,NA,NA,"",   5.06625E-03,   433.681E-21,       1.11289,   66.2467E-06,   3.15250E+03
C:/ALETube/PressureUpdate/LargeStep/DeformErode/JobErode.odb,Step-1,Increment      4: Step Time =,    40.00,"TUBE-1",         14822,  -2.92791E-03,  -4.05307E-03,         1.125,NA,NA,"",   5.06646E-03,  -433.681E-21,       1.12538,   66.4605E-06,   3.19215E+03
C:/ALETube/PressureUpdate/LargeStep/DeformErode/JobErode.odb,Step-1,Increment      4: Step Time =,    40.00,"TUBE-1",         14763,  -3.50742E-03,  -3.56342E-03,         1.125,NA,NA,"",   5.06642E-03,   433.681E-21,       1.12538,   66.4156E-06,   3.18790E+03
C:/ALETube/PressureUpdate/LargeStep/DeformErode/JobErode.odb,Step-1,Increment      4: Step Time =,    40.00,"TUBE-1",         14927,  -3.50742E-03,  -3.56342E-03,       1.13750,NA,NA,"",   5.06658E-03,            0.,       1.13788,   66.5844E-06,   3.22330E+03
C:/ALETube/PressureUpdate/LargeStep/DeformErode/JobErode.odb,Step-1,Increment      4: Step Time =,    40.00,"TUBE-1",         14986,  -2.92791E-03,  -4.05307E-03,       1.13750,NA,NA,"",   5.06663E-03,  -433.681E-21,       1.13788,   66.6294E-06,   3.22760E+03
C:/ALETube/PressureUpdate/LargeStep/DeformErode/JobErode.odb,Step-1,Increment      4: Step Time =,    40.00,"TUBE-1",         15150,  -2.92791E-03,  -4.05307E-03,       1.15000,NA,NA,"",   5.06680E-03,            0.,       1.15037,   66.7983E-06,   3.26305E+03
C:/ALETube/PressureUpdate/LargeStep/DeformErode/JobErode.odb,Step-1,Increment      4: Step Time =,    40.00,"TUBE-1",         15091,  -3.50742E-03,  -3.56342E-03,       1.15000,NA,NA,"",   5.06675E-03,            0.,       1.15037,   66.7532E-06,   3.25870E+03
C:/ALETube/PressureUpdate/LargeStep/DeformErode/JobErode.odb,Step-1,Increment      4: Step Time =,    40.00,"TUBE-1",         15314,  -2.92791E-03,  -4.05307E-03,       1.16250,NA,NA,"",   5.06697E-03,            0.,       1.16287,   66.9672E-06,   3.29849E+03
C:/ALETube/PressureUpdate/LargeStep/DeformErode/JobErode.odb,Step-1,Increment      4: Step Time =,    40.00,"TUBE-1",         15255,  -3.50742E-03,  -3.56342E-03,       1.16250,NA,NA,"",   5.06692E-03,            0.,       1.16287,   66.9221E-06,   3.29410E+03
C:/ALETube/PressureUpdate/LargeStep/DeformErode/JobErode.odb,Step-1,Increment      4: Step Time =,    40.00,"TUBE-1",         15478,  -2.92791E-03,  -4.05307E-03,       1.17500,NA,NA,"",   5.06714E-03,            0.,       1.17537,   67.1361E-06,   3.33394E+03
C:/ALETube/PressureUpdate/LargeStep/DeformErode/JobErode.odb,Step-1,Increment      4: Step Time =,    40.00,"TUBE-1",         15419,  -3.50742E-03,  -3.56342E-03,       1.17500,NA,NA,"",   5.06709E-03,            0.,       1.17537,   67.0909E-06,   3.32950E+03
C:/ALETube/PressureUpdate/LargeStep/DeformErode/JobErode.odb,Step-1,Increment      4: Step Time =,    40.00,"TUBE-1",         15642,  -2.92791E-03,  -4.05307E-03,        1.1875,NA,NA,"",   5.06730E-03,            0.,       1.18786,   67.3050E-06,   3.36938E+03
C:/ALETube/PressureUpdate/LargeStep/DeformErode/JobErode.odb,Step-1,Increment      4: Step Time =,    40.00,"TUBE-1",         15583,  -3.50742E-03,  -3.56342E-03,        1.1875,NA,NA,"",   5.06726E-03,            0.,       1.18786,   67.2597E-06,   3.36490E+03
C:/ALETube/PressureUpdate/LargeStep/DeformErode/JobErode.odb,Step-1,Increment      4: Step Time =,    40.00,"TUBE-1",         15747,  -3.50742E-03,  -3.56342E-03,       1.20000,NA,NA,"",   5.06743E-03,  -433.681E-21,       1.20036,   67.4286E-06,   3.40029E+03
C:/ALETube/PressureUpdate/LargeStep/DeformErode/JobErode.odb,Step-1,Increment      4: Step Time =,    40.00,"TUBE-1",         15806,  -2.92791E-03,  -4.05307E-03,       1.20000,NA,NA,"",   5.06747E-03,  -433.681E-21,       1.20036,   67.4739E-06,   3.40483E+03
C:/ALETube/PressureUpdate/LargeStep/DeformErode/JobErode.odb,Step-1,Increment      4: Step Time =,    40.00,"TUBE-1",         15970,  -2.92791E-03,  -4.05307E-03,       1.21250,NA,NA,"",   5.06764E-03,  -433.681E-21,       1.21285,   67.6428E-06,   3.44027E+03
C:/ALETube/PressureUpdate/LargeStep/DeformErode/JobErode.odb,Step-1,Increment      4: Step Time =,    40.00,"TUBE-1",         15911,  -3.50742E-03,  -3.56342E-03,       1.21250,NA,NA,"",   5.06760E-03,            0.,       1.21285,   67.5974E-06,   3.43569E+03
C:/ALETube/PressureUpdate/LargeStep/DeformErode/JobErode.odb,Step-1,Increment      4: Step Time =,    40.00,"TUBE-1",         16134,  -2.92791E-03,  -4.05307E-03,       1.22500,NA,NA,"",   5.06781E-03,  -433.681E-21,       1.22535,   67.8117E-06,   3.47572E+03
C:/ALETube/PressureUpdate/LargeStep/DeformErode/JobErode.odb,Step-1,Increment      4: Step Time =,    40.00,"TUBE-1",         16075,  -3.50742E-03,  -3.56342E-03,       1.22500,NA,NA,"",   5.06777E-03,            0.,       1.22535,   67.7663E-06,   3.47109E+03
C:/ALETube/PressureUpdate/LargeStep/DeformErode/JobErode.odb,Step-1,Increment      4: Step Time =,    40.00,"TUBE-1",         16298,  -2.92791E-03,  -4.05307E-03,       1.23750,NA,NA,"",   5.06798E-03,            0.,       1.23785,   67.9806E-06,   3.51116E+03
C:/ALETube/PressureUpdate/LargeStep/DeformErode/JobErode.odb,Step-1,Increment      4: Step Time =,    40.00,"TUBE-1",         16239,  -3.50742E-03,  -3.56342E-03,       1.23750,NA,NA,"",   5.06794E-03,  -433.681E-21,       1.23785,   67.9352E-06,   3.50649E+03
C:/ALETube/PressureUpdate/LargeStep/DeformErode/JobErode.odb,Step-1,Increment      4: Step Time =,    40.00,"TUBE-1",         16462,  -2.92791E-03,  -4.05307E-03,          1.25,NA,NA,"",   5.06815E-03,            0.,       1.25034,   68.1496E-06,   3.54661E+03
C:/ALETube/PressureUpdate/LargeStep/DeformErode/JobErode.odb,Step-1,Increment      4: Step Time =,    40.00,"TUBE-1",         16403,  -3.50742E-03,  -3.56342E-03,          1.25,NA,NA,"",   5.06810E-03,            0.,       1.25034,   68.1040E-06,   3.54188E+03
C:/ALETube/PressureUpdate/LargeStep/DeformErode/JobErode.odb,Step-1,Increment      4: Step Time =,    40.00,"TUBE-1",         16567,  -3.50742E-03,  -3.56342E-03,       1.26250,NA,NA,"",   5.06827E-03,            0.,       1.26284,   68.2729E-06,   3.57728E+03
C:/ALETube/PressureUpdate/LargeStep/DeformErode/JobErode.odb,Step-1,Increment      4: Step Time =,    40.00,"TUBE-1",         16626,  -2.92791E-03,  -4.05307E-03,       1.26250,NA,NA,"",   5.06832E-03,            0.,       1.26284,   68.3185E-06,   3.58205E+03
C:/ALETube/PressureUpdate/LargeStep/DeformErode/JobErode.odb,Step-1,Increment      4: Step Time =,    40.00,"TUBE-1",         16790,  -2.92791E-03,  -4.05307E-03,       1.27500,NA,NA,"",   5.06849E-03,            0.,       1.27533,   68.4874E-06,   3.61749E+03
C:/ALETube/PressureUpdate/LargeStep/DeformErode/JobErode.odb,Step-1,Increment      4: Step Time =,    40.00,"TUBE-1",         16731,  -3.50742E-03,  -3.56342E-03,       1.27500,NA,NA,"",   5.06844E-03,  -433.681E-21,       1.27533,   68.4417E-06,   3.61267E+03
C:/ALETube/PressureUpdate/LargeStep/DeformErode/JobErode.odb,Step-1,Increment      4: Step Time =,    40.00,"TUBE-1",         16954,  -2.92791E-03,  -4.05307E-03,       1.28750,NA,NA,"",   5.06866E-03,  -433.681E-21,       1.28783,   68.6564E-06,   3.65293E+03
C:/ALETube/PressureUpdate/LargeStep/DeformErode/JobErode.odb,Step-1,Increment      4: Step Time =,    40.00,"TUBE-1",         16895,  -3.50742E-03,  -3.56342E-03,       1.28750,NA,NA,"",   5.06861E-03,            0.,       1.28783,   68.6106E-06,   3.64807E+03
C:/ALETube/PressureUpdate/LargeStep/DeformErode/JobErode.odb,Step-1,Increment      4: Step Time =,    40.00,"TUBE-1",         17118,  -2.92791E-03,  -4.05307E-03,       1.30000,NA,NA,"",   5.06883E-03,            0.,       1.30032,   68.8253E-06,   3.68837E+03
C:/ALETube/PressureUpdate/LargeStep/DeformErode/JobErode.odb,Step-1,Increment      4: Step Time =,    40.00,"TUBE-1",         17059,  -3.50742E-03,  -3.56342E-03,       1.30000,NA,NA,"",   5.06878E-03,            0.,       1.30032,   68.7795E-06,   3.68346E+03
C:/ALETube/PressureUpdate/LargeStep/DeformErode/JobErode.odb,Step-1,Increment      4: Step Time =,    40.00,"TUBE-1",         17282,  -2.92791E-03,  -4.05307E-03,        1.3125,NA,NA,"",   5.06899E-03,            0.,       1.31282,   68.9942E-06,   3.72381E+03
C:/ALETube/PressureUpdate/LargeStep/DeformErode/JobErode.odb,Step-1,Increment      4: Step Time =,    40.00,"TUBE-1",         17223,  -3.50742E-03,  -3.56342E-03,        1.3125,NA,NA,"",   5.06895E-03,            0.,       1.31282,   68.9484E-06,   3.71886E+03
C:/ALETube/PressureUpdate/LargeStep/DeformErode/JobErode.odb,Step-1,Increment      4: Step Time =,    40.00,"TUBE-1",         17387,  -3.50742E-03,  -3.56342E-03,       1.32500,NA,NA,"",   5.06912E-03,            0.,       1.32531,   69.1173E-06,   3.75425E+03
C:/ALETube/PressureUpdate/LargeStep/DeformErode/JobErode.odb,Step-1,Increment      4: Step Time =,    40.00,"TUBE-1",         17446,  -2.92791E-03,  -4.05307E-03,       1.32500,NA,NA,"",   5.06916E-03,            0.,       1.32531,   69.1632E-06,   3.75925E+03
C:/ALETube/PressureUpdate/LargeStep/DeformErode/JobErode.odb,Step-1,Increment      4: Step Time =,    40.00,"TUBE-1",         17610,  -2.92791E-03,  -4.05307E-03,       1.33750,NA,NA,"",   5.06933E-03,  -433.681E-21,       1.33781,   69.3321E-06,   3.79470E+03
C:/ALETube/PressureUpdate/LargeStep/DeformErode/JobErode.odb,Step-1,Increment      4: Step Time =,    40.00,"TUBE-1",         17551,  -3.50742E-03,  -3.56342E-03,       1.33750,NA,NA,"",   5.06929E-03,            0.,       1.33781,   69.2862E-06,   3.78964E+03
C:/ALETube/PressureUpdate/LargeStep/DeformErode/JobErode.odb,Step-1,Increment      4: Step Time =,    40.00,"TUBE-1",         17774,  -2.92791E-03,  -4.05307E-03,       1.35000,NA,NA,"",   5.06950E-03,            0.,       1.35030,   69.5011E-06,   3.83013E+03
C:/ALETube/PressureUpdate/LargeStep/DeformErode/JobErode.odb,Step-1,Increment      4: Step Time =,    40.00,"TUBE-1",         17715,  -3.50742E-03,  -3.56342E-03,       1.35000,NA,NA,"",   5.06946E-03,            0.,       1.35030,   69.4550E-06,   3.82504E+03
C:/ALETube/PressureUpdate/LargeStep/DeformErode/JobErode.odb,Step-1,Increment      4: Step Time =,    40.00,"TUBE-1",         17938,  -2.92791E-03,  -4.05307E-03,       1.36250,NA,NA,"",   5.06967E-03,            0.,       1.36280,   69.6700E-06,   3.86557E+03
C:/ALETube/PressureUpdate/LargeStep/DeformErode/JobErode.odb,Step-1,Increment      4: Step Time =,    40.00,"TUBE-1",         17879,  -3.50742E-03,  -3.56342E-03,       1.36250,NA,NA,"",   5.06962E-03,            0.,       1.36280,   69.6239E-06,   3.86043E+03
C:/ALETube/PressureUpdate/LargeStep/DeformErode/JobErode.odb,Step-1,Increment      4: Step Time =,    40.00,"TUBE-1",         18102,  -2.92791E-03,  -4.05307E-03,         1.375,NA,NA,"",   5.06984E-03,            0.,       1.37530,   69.8390E-06,   3.90101E+03
C:/ALETube/PressureUpdate/LargeStep/DeformErode/JobErode.odb,Step-1,Increment      4: Step Time =,    40.00,"TUBE-1",         18043,  -3.50742E-03,  -3.56342E-03,         1.375,NA,NA,"",   5.06979E-03,            0.,       1.37530,   69.7928E-06,   3.89582E+03
C:/ALETube/PressureUpdate/LargeStep/DeformErode/JobErode.odb,Step-1,Increment      4: Step Time =,    40.00,"TUBE-1",         18207,  -3.50742E-03,  -3.56342E-03,       1.38750,NA,NA,"",   5.06996E-03,   433.681E-21,       1.38779,   69.9617E-06,   3.93121E+03
C:/ALETube/PressureUpdate/LargeStep/DeformErode/JobErode.odb,Step-1,Increment      4: Step Time =,    40.00,"TUBE-1",         18266,  -2.92791E-03,  -4.05307E-03,       1.38750,NA,NA,"",   5.07001E-03,   433.681E-21,       1.38779,   70.0080E-06,   3.93645E+03
C:/ALETube/PressureUpdate/LargeStep/DeformErode/JobErode.odb,Step-1,Increment      4: Step Time =,    40.00,"TUBE-1",         18430,  -2.92791E-03,  -4.05307E-03,       1.40000,NA,NA,"",   5.07018E-03,            0.,       1.40029,   70.1769E-06,   3.97189E+03
C:/ALETube/PressureUpdate/LargeStep/DeformErode/JobErode.odb,Step-1,Increment      4: Step Time =,    40.00,"TUBE-1",         18371,  -3.50742E-03,  -3.56342E-03,       1.40000,NA,NA,"",   5.07013E-03,  -433.681E-21,       1.40029,   70.1306E-06,   3.96660E+03
C:/ALETube/PressureUpdate/LargeStep/DeformErode/JobErode.odb,Step-1,Increment      4: Step Time =,    40.00,"TUBE-1",         18594,  -2.92791E-03,  -4.05307E-03,       1.41250,NA,NA,"",   5.07035E-03,            0.,       1.41278,   70.3459E-06,   4.00732E+03
C:/ALETube/PressureUpdate/LargeStep/DeformErode/JobErode.odb,Step-1,Increment      4: Step Time =,    40.00,"TUBE-1",         18535,  -3.50742E-03,  -3.56342E-03,       1.41250,NA,NA,"",   5.07030E-03,            0.,       1.41278,   70.2996E-06,   4.00199E+03
C:/ALETube/PressureUpdate/LargeStep/DeformErode/JobErode.odb,Step-1,Increment      4: Step Time =,    40.00,"TUBE-1",         18758,  -2.92791E-03,  -4.05307E-03,       1.42500,NA,NA,"",   5.07051E-03,            0.,       1.42528,   70.5149E-06,   4.04276E+03
C:/ALETube/PressureUpdate/LargeStep/DeformErode/JobErode.odb,Step-1,Increment      4: Step Time =,    40.00,"TUBE-1",         18699,  -3.50742E-03,  -3.56342E-03,       1.42500,NA,NA,"",   5.07047E-03,            0.,       1.42528,   70.4685E-06,   4.03738E+03
C:/ALETube/PressureUpdate/LargeStep/DeformErode/JobErode.odb,Step-1,Increment      4: Step Time =,    40.00,"TUBE-1",         18922,  -2.92791E-03,  -4.05307E-03,        1.4375,NA,NA,"",   5.07068E-03,   433.681E-21,       1.43777,   70.6839E-06,   4.07820E+03
C:/ALETube/PressureUpdate/LargeStep/DeformErode/JobErode.odb,Step-1,Increment      4: Step Time =,    40.00,"TUBE-1",         18863,  -3.50742E-03,  -3.56342E-03,        1.4375,NA,NA,"",   5.07064E-03,  -433.681E-21,       1.43777,   70.6374E-06,   4.07277E+03
C:/ALETube/PressureUpdate/LargeStep/DeformErode/JobErode.odb,Step-1,Increment      4: Step Time =,    40.00,"TUBE-1",         19027,  -3.50742E-03,  -3.56342E-03,       1.45000,NA,NA,"",   5.07081E-03,            0.,       1.45027,   70.8063E-06,   4.10816E+03
C:/ALETube/PressureUpdate/LargeStep/DeformErode/JobErode.odb,Step-1,Increment      4: Step Time =,    40.00,"TUBE-1",         19086,  -2.92791E-03,  -4.05307E-03,       1.45000,NA,NA,"",   5.07085E-03,   433.681E-21,       1.45027,   70.8528E-06,   4.11363E+03
C:/ALETube/PressureUpdate/LargeStep/DeformErode/JobErode.odb,Step-1,Increment      4: Step Time =,    40.00,"TUBE-1",         19250,  -2.92791E-03,  -4.05307E-03,       1.46250,NA,NA,"",   5.07102E-03,            0.,       1.46276,   71.0218E-06,   4.14907E+03
C:/ALETube/PressureUpdate/LargeStep/DeformErode/JobErode.odb,Step-1,Increment      4: Step Time =,    40.00,"TUBE-1",         19191,  -3.50742E-03,  -3.56342E-03,       1.46250,NA,NA,"",   5.07098E-03,            0.,       1.46276,   70.9752E-06,   4.14355E+03
C:/ALETube/PressureUpdate/LargeStep/DeformErode/JobErode.odb,Step-1,Increment      4: Step Time =,    40.00,"TUBE-1",         19414,  -2.92791E-03,  -4.05307E-03,       1.47500,NA,NA,"",   5.07119E-03,            0.,       1.47526,   71.1908E-06,   4.18450E+03
C:/ALETube/PressureUpdate/LargeStep/DeformErode/JobErode.odb,Step-1,Increment      4: Step Time =,    40.00,"TUBE-1",         19355,  -3.50742E-03,  -3.56342E-03,       1.47500,NA,NA,"",   5.07114E-03,  -433.681E-21,       1.47526,   71.1442E-06,   4.17894E+03
C:/ALETube/PressureUpdate/LargeStep/DeformErode/JobErode.odb,Step-1,Increment      4: Step Time =,    40.00,"TUBE-1",         19578,  -2.92791E-03,  -4.05307E-03,       1.48750,NA,NA,"",   5.07136E-03,            0.,       1.48775,   71.3598E-06,   4.21994E+03
C:/ALETube/PressureUpdate/LargeStep/DeformErode/JobErode.odb,Step-1,Increment      4: Step Time =,    40.00,"TUBE-1",         19519,  -3.50742E-03,  -3.56342E-03,       1.48750,NA,NA,"",   5.07131E-03,            0.,       1.48775,   71.3131E-06,   4.21432E+03
C:/ALETube/PressureUpdate/LargeStep/DeformErode/JobErode.odb,Step-1,Increment      4: Step Time =,    40.00,"TUBE-1",         19742,  -2.92791E-03,  -4.05307E-03,           1.5,NA,NA,"",   5.07153E-03,  -433.681E-21,       1.50024,   71.5288E-06,   4.25537E+03
C:/ALETube/PressureUpdate/LargeStep/DeformErode/JobErode.odb,Step-1,Increment      4: Step Time =,    40.00,"TUBE-1",         19683,  -3.50742E-03,  -3.56342E-03,           1.5,NA,NA,"",   5.07148E-03,            0.,       1.50024,   71.4820E-06,   4.24971E+03
C:/ALETube/PressureUpdate/LargeStep/DeformErode/JobErode.odb,Step-1,Increment      4: Step Time =,    40.00,"TUBE-1",         19847,  -3.50742E-03,  -3.56342E-03,       1.51250,NA,NA,"",   5.07165E-03,            0.,       1.51274,   71.6510E-06,   4.28510E+03
C:/ALETube/PressureUpdate/LargeStep/DeformErode/JobErode.odb,Step-1,Increment      4: Step Time =,    40.00,"TUBE-1",         19906,  -2.92791E-03,  -4.05307E-03,       1.51250,NA,NA,"",   5.07170E-03,            0.,       1.51274,   71.6978E-06,   4.29081E+03
C:/ALETube/PressureUpdate/LargeStep/DeformErode/JobErode.odb,Step-1,Increment      4: Step Time =,    40.00,"TUBE-1",         20070,  -2.92791E-03,  -4.05307E-03,       1.52500,NA,NA,"",   5.07187E-03,  -433.681E-21,       1.52523,   71.8668E-06,   4.32624E+03
C:/ALETube/PressureUpdate/LargeStep/DeformErode/JobErode.odb,Step-1,Increment      4: Step Time =,    40.00,"TUBE-1",         20011,  -3.50742E-03,  -3.56342E-03,       1.52500,NA,NA,"",   5.07182E-03,            0.,       1.52523,   71.8199E-06,   4.32048E+03
C:/ALETube/PressureUpdate/LargeStep/DeformErode/JobErode.odb,Step-1,Increment      4: Step Time =,    40.00,"TUBE-1",         20234,  -2.92791E-03,  -4.05307E-03,       1.53750,NA,NA,"",   5.07204E-03,            0.,       1.53773,   72.0358E-06,   4.36167E+03
C:/ALETube/PressureUpdate/LargeStep/DeformErode/JobErode.odb,Step-1,Increment      4: Step Time =,    40.00,"TUBE-1",         20175,  -3.50742E-03,  -3.56342E-03,       1.53750,NA,NA,"",   5.07199E-03,            0.,       1.53773,   71.9889E-06,   4.35587E+03
C:/ALETube/PressureUpdate/LargeStep/DeformErode/JobErode.odb,Step-1,Increment      4: Step Time =,    40.00,"TUBE-1",         20398,  -2.92791E-03,  -4.05307E-03,       1.55000,NA,NA,"",   5.07220E-03,            0.,       1.55022,   72.2048E-06,   4.39710E+03
C:/ALETube/PressureUpdate/LargeStep/DeformErode/JobErode.odb,Step-1,Increment      4: Step Time =,    40.00,"TUBE-1",         20339,  -3.50742E-03,  -3.56342E-03,       1.55000,NA,NA,"",   5.07216E-03,            0.,       1.55022,   72.1578E-06,   4.39125E+03
C:/ALETube/PressureUpdate/LargeStep/DeformErode/JobErode.odb,Step-1,Increment      4: Step Time =,    40.00,"TUBE-1",         20562,  -2.92791E-03,  -4.05307E-03,        1.5625,NA,NA,"",   5.07237E-03,            0.,       1.56272,   72.3738E-06,   4.43254E+03
C:/ALETube/PressureUpdate/LargeStep/DeformErode/JobErode.odb,Step-1,Increment      4: Step Time =,    40.00,"TUBE-1",         20503,  -3.50742E-03,  -3.56342E-03,        1.5625,NA,NA,"",   5.07233E-03,   433.681E-21,       1.56272,   72.3268E-06,   4.42664E+03
C:/ALETube/PressureUpdate/LargeStep/DeformErode/JobErode.odb,Step-1,Increment      4: Step Time =,    40.00,"TUBE-1",         20667,  -3.50742E-03,  -3.56342E-03,       1.57500,NA,NA,"",   5.07250E-03,  -433.681E-21,       1.57521,   72.4957E-06,   4.46202E+03
C:/ALETube/PressureUpdate/LargeStep/DeformErode/JobErode.odb,Step-1,Increment      4: Step Time =,    40.00,"TUBE-1",         20726,  -2.92791E-03,  -4.05307E-03,       1.57500,NA,NA,"",   5.07254E-03,   433.681E-21,       1.57521,   72.5429E-06,   4.46797E+03
C:/ALETube/PressureUpdate/LargeStep/DeformErode/JobErode.odb,Step-1,Increment      4: Step Time =,    40.00,"TUBE-1",         20890,  -2.92791E-03,  -4.05307E-03,       1.58750,NA,NA,"",   5.07271E-03,   433.681E-21,       1.58771,   72.7119E-06,   4.50340E+03
C:/ALETube/PressureUpdate/LargeStep/DeformErode/JobErode.odb,Step-1,Increment      4: Step Time =,    40.00,"TUBE-1",         20831,  -3.50742E-03,  -3.56342E-03,       1.58750,NA,NA,"",   5.07266E-03,  -433.681E-21,       1.58771,   72.6647E-06,   4.49740E+03
C:/ALETube/PressureUpdate/LargeStep/DeformErode/JobErode.odb,Step-1,Increment      4: Step Time =,    40.00,"TUBE-1",         21054,  -2.92791E-03,  -4.05307E-03,       1.60000,NA,NA,"",   5.07288E-03,  -433.681E-21,       1.60020,   72.8809E-06,   4.53883E+03
C:/ALETube/PressureUpdate/LargeStep/DeformErode/JobErode.odb,Step-1,Increment      4: Step Time =,    40.00,"TUBE-1",         20995,  -3.50742E-03,  -3.56342E-03,       1.60000,NA,NA,"",   5.07283E-03,   433.681E-21,       1.60020,   72.8337E-06,   4.53279E+03
C:/ALETube/PressureUpdate/LargeStep/DeformErode/JobErode.odb,Step-1,Increment      4: Step Time =,    40.00,"TUBE-1",         21218,  -2.92791E-03,  -4.05307E-03,       1.61250,NA,NA,"",   5.07305E-03,            0.,       1.61270,   73.0499E-06,   4.57426E+03
C:/ALETube/PressureUpdate/LargeStep/DeformErode/JobErode.odb,Step-1,Increment      4: Step Time =,    40.00,"TUBE-1",         21159,  -3.50742E-03,  -3.56342E-03,       1.61250,NA,NA,"",   5.07300E-03,            0.,       1.61270,   73.0026E-06,   4.56817E+03
C:/ALETube/PressureUpdate/LargeStep/DeformErode/JobErode.odb,Step-1,Increment      4: Step Time =,    40.00,"TUBE-1",         21382,  -2.92791E-03,  -4.05307E-03,         1.625,NA,NA,"",   5.07322E-03,  -433.681E-21,       1.62519,   73.2190E-06,   4.60969E+03
C:/ALETube/PressureUpdate/LargeStep/DeformErode/JobErode.odb,Step-1,Increment      4: Step Time =,    40.00,"TUBE-1",         21323,  -3.50742E-03,  -3.56342E-03,         1.625,NA,NA,"",   5.07317E-03,            0.,       1.62519,   73.1716E-06,   4.60355E+03
C:/ALETube/PressureUpdate/LargeStep/DeformErode/JobErode.odb,Step-1,Increment      4: Step Time =,    40.00,"TUBE-1",         21487,  -3.50742E-03,  -3.56342E-03,       1.63750,NA,NA,"",   5.07334E-03,   433.681E-21,       1.63768,   73.3406E-06,   4.63893E+03
C:/ALETube/PressureUpdate/LargeStep/DeformErode/JobErode.odb,Step-1,Increment      4: Step Time =,    40.00,"TUBE-1",         21546,  -2.92791E-03,  -4.05307E-03,       1.63750,NA,NA,"",   5.07339E-03,            0.,       1.63768,   73.3880E-06,   4.64511E+03
C:/ALETube/PressureUpdate/LargeStep/DeformErode/JobErode.odb,Step-1,Increment      4: Step Time =,    40.00,"TUBE-1",         21710,  -2.92791E-03,  -4.05307E-03,       1.65000,NA,NA,"",   5.07356E-03,   433.681E-21,       1.65018,   73.5570E-06,   4.68054E+03
C:/ALETube/PressureUpdate/LargeStep/DeformErode/JobErode.odb,Step-1,Increment      4: Step Time =,    40.00,"TUBE-1",         21651,  -3.50742E-03,  -3.56342E-03,       1.65000,NA,NA,"",   5.07351E-03,            0.,       1.65018,   73.5095E-06,   4.67431E+03
C:/ALETube/PressureUpdate/LargeStep/DeformErode/JobErode.odb,Step-1,Increment      4: Step Time =,    40.00,"TUBE-1",         21874,  -2.92791E-03,  -4.05307E-03,       1.66250,NA,NA,"",   5.07373E-03,            0.,       1.66267,   73.7261E-06,   4.71597E+03
C:/ALETube/PressureUpdate/LargeStep/DeformErode/JobErode.odb,Step-1,Increment      4: Step Time =,    40.00,"TUBE-1",         21815,  -3.50742E-03,  -3.56342E-03,       1.66250,NA,NA,"",   5.07368E-03,  -433.681E-21,       1.66267,   73.6785E-06,   4.70970E+03
C:/ALETube/PressureUpdate/LargeStep/DeformErode/JobErode.odb,Step-1,Increment      4: Step Time =,    40.00,"TUBE-1",         22038,  -2.92791E-03,  -4.05307E-03,       1.67500,NA,NA,"",   5.07390E-03,            0.,       1.67517,   73.8951E-06,   4.75140E+03
C:/ALETube/PressureUpdate/LargeStep/DeformErode/JobErode.odb,Step-1,Increment      4: Step Time =,    40.00,"TUBE-1",         21979,  -3.50742E-03,  -3.56342E-03,       1.67500,NA,NA,"",   5.07385E-03,            0.,       1.67517,   73.8475E-06,   4.74508E+03
C:/ALETube/PressureUpdate/LargeStep/DeformErode/JobErode.odb,Step-1,Increment      4: Step Time =,    40.00,"TUBE-1",         22202,  -2.92791E-03,  -4.05307E-03,        1.6875,NA,NA,"",   5.07406E-03,   433.681E-21,       1.68766,   74.0642E-06,   4.78683E+03
C:/ALETube/PressureUpdate/LargeStep/DeformErode/JobErode.odb,Step-1,Increment      4: Step Time =,    40.00,"TUBE-1",         22143,  -3.50742E-03,  -3.56342E-03,        1.6875,NA,NA,"",   5.07402E-03,            0.,       1.68766,   74.0165E-06,   4.78046E+03
C:/ALETube/PressureUpdate/LargeStep/DeformErode/JobErode.odb,Step-1,Increment      4: Step Time =,    40.00,"TUBE-1",         22307,  -3.50742E-03,  -3.56342E-03,       1.70000,NA,NA,"",   5.07419E-03,            0.,       1.70016,   74.1855E-06,   4.81583E+03
C:/ALETube/PressureUpdate/LargeStep/DeformErode/JobErode.odb,Step-1,Increment      4: Step Time =,    40.00,"TUBE-1",         22366,  -2.92791E-03,  -4.05307E-03,       1.70000,NA,NA,"",   5.07423E-03,  -433.681E-21,       1.70016,   74.2332E-06,   4.82225E+03
C:/ALETube/PressureUpdate/LargeStep/DeformErode/JobErode.odb,Step-1,Increment      4: Step Time =,    40.00,"TUBE-1",         22530,  -2.92791E-03,  -4.05307E-03,       1.71250,NA,NA,"",   5.07440E-03,            0.,       1.71265,   74.4023E-06,   4.85768E+03
C:/ALETube/PressureUpdate/LargeStep/DeformErode/JobErode.odb,Step-1,Increment      4: Step Time =,    40.00,"TUBE-1",         22471,  -3.50742E-03,  -3.56342E-03,       1.71250,NA,NA,"",   5.07435E-03,  -433.681E-21,       1.71265,   74.3545E-06,   4.85121E+03
C:/ALETube/PressureUpdate/LargeStep/DeformErode/JobErode.odb,Step-1,Increment      4: Step Time =,    40.00,"TUBE-1",         22694,  -2.92791E-03,  -4.05307E-03,       1.72500,NA,NA,"",   5.07457E-03,            0.,       1.72514,   74.5713E-06,   4.89310E+03
C:/ALETube/PressureUpdate/LargeStep/DeformErode/JobErode.odb,Step-1,Increment      4: Step Time =,    40.00,"TUBE-1",         22635,  -3.50742E-03,  -3.56342E-03,       1.72500,NA,NA,"",   5.07452E-03,            0.,       1.72514,   74.5235E-06,   4.88659E+03
C:/ALETube/PressureUpdate/LargeStep/DeformErode/JobErode.odb,Step-1,Increment      4: Step Time =,    40.00,"TUBE-1",         22858,  -2.92791E-03,  -4.05307E-03,       1.73750,NA,NA,"",   5.07474E-03,   433.681E-21,       1.73764,   74.7405E-06,   4.92854E+03
C:/ALETube/PressureUpdate/LargeStep/DeformErode/JobErode.odb,Step-1,Increment      4: Step Time =,    40.00,"TUBE-1",         22799,  -3.50742E-03,  -3.56342E-03,       1.73750,NA,NA,"",   5.07469E-03,  -433.681E-21,       1.73764,   74.6926E-06,   4.92199E+03
C:/ALETube/PressureUpdate/LargeStep/DeformErode/JobErode.odb,Step-1,Increment      4: Step Time =,    40.00,"TUBE-1",         23022,  -2.92791E-03,  -4.05307E-03,          1.75,NA,NA,"",   5.07491E-03,            0.,       1.75013,   74.9093E-06,   4.96391E+03
C:/ALETube/PressureUpdate/LargeStep/DeformErode/JobErode.odb,Step-1,Increment      4: Step Time =,    40.00,"TUBE-1",         22963,  -3.50742E-03,  -3.56342E-03,          1.75,NA,NA,"",   5.07486E-03,            0.,       1.75013,   74.8614E-06,   4.95730E+03
C:/ALETube/PressureUpdate/LargeStep/DeformErode/JobErode.odb,Step-1,Increment      4: Step Time =,    40.00,"TUBE-1",         23127,  -3.50742E-03,  -3.56342E-03,       1.76250,NA,NA,"",   5.07503E-03,            0.,       1.76262,   75.0304E-06,   4.99275E+03
C:/ALETube/PressureUpdate/LargeStep/DeformErode/JobErode.odb,Step-1,Increment      4: Step Time =,    40.00,"TUBE-1",         23186,  -2.92791E-03,  -4.05307E-03,       1.76250,NA,NA,"",   5.07508E-03,            0.,       1.76262,   75.0784E-06,   4.99941E+03
C:/ALETube/PressureUpdate/LargeStep/DeformErode/JobErode.odb,Step-1,Increment      4: Step Time =,    40.00,"TUBE-1",         23350,  -2.92791E-03,  -4.05307E-03,       1.77500,NA,NA,"",   5.07525E-03,   188.736E-12,       1.77512,   75.2496E-06,   5.03507E+03
C:/ALETube/PressureUpdate/LargeStep/DeformErode/JobErode.odb,Step-1,Increment      4: Step Time =,    40.00,"TUBE-1",         23291,  -3.50742E-03,  -3.56342E-03,       1.77500,NA,NA,"",   5.07520E-03,  -433.681E-21,       1.77512,   75.2015E-06,   5.02837E+03
C:/ALETube/PressureUpdate/LargeStep/DeformErode/JobErode.odb,Step-1,Increment      4: Step Time =,    40.00,"TUBE-1",         23514,  -2.92791E-03,  -4.05307E-03,       1.78750,NA,NA,"",   5.07541E-03,   433.681E-21,       1.78761,   75.4121E-06,   5.06938E+03
C:/ALETube/PressureUpdate/LargeStep/DeformErode/JobErode.odb,Step-1,Increment      4: Step Time =,    40.00,"TUBE-1",         23455,  -3.50742E-03,  -3.56342E-03,       1.78750,NA,NA,"",   5.07536E-03,            0.,       1.78761,   75.3639E-06,   5.06264E+03
C:/ALETube/PressureUpdate/LargeStep/DeformErode/JobErode.odb,Step-1,Increment      4: Step Time =,    40.00,"TUBE-1",         23678,  -2.92791E-03,  -4.05307E-03,       1.80000,NA,NA,"",   5.07555E-03,  -433.681E-21,       1.80011,   75.5454E-06,   5.09717E+03
C:/ALETube/PressureUpdate/LargeStep/DeformErode/JobErode.odb,Step-1,Increment      4: Step Time =,    40.00,"TUBE-1",         23619,  -3.50742E-03,  -3.56342E-03,       1.80000,NA,NA,"",   5.07550E-03,            0.,       1.80011,   75.4972E-06,   5.09039E+03
C:/ALETube/PressureUpdate/LargeStep/DeformErode/JobErode.odb,Step-1,Increment      4: Step Time =,    40.00,"TUBE-1",         23842,  -2.92791E-03,  -4.05307E-03,        1.8125,NA,NA,"",   5.07572E-03,            0.,       1.81260,   75.7184E-06,   5.13357E+03
C:/ALETube/PressureUpdate/LargeStep/DeformErode/JobErode.odb,Step-1,Increment      4: Step Time =,    40.00,"TUBE-1",         23783,  -3.50742E-03,  -3.56342E-03,        1.8125,NA,NA,"",   5.07567E-03,   433.681E-21,       1.81260,   75.6702E-06,   5.12674E+03
C:/ALETube/PressureUpdate/LargeStep/DeformErode/JobErode.odb,Step-1,Increment      4: Step Time =,    40.00,"TUBE-1",         23947,  -3.50742E-03,  -3.56342E-03,       1.82500,NA,NA,"",   5.07584E-03,  -433.681E-21,       1.82509,   75.8403E-06,   5.16211E+03
C:/ALETube/PressureUpdate/LargeStep/DeformErode/JobErode.odb,Step-1,Increment      4: Step Time =,    40.00,"TUBE-1",         24006,  -2.92791E-03,  -4.05307E-03,       1.82500,NA,NA,"",   5.07589E-03,  -433.681E-21,       1.82509,   75.8886E-06,   5.16898E+03
C:/ALETube/PressureUpdate/LargeStep/DeformErode/JobErode.odb,Step-1,Increment      4: Step Time =,    40.00,"TUBE-1",         24170,  -2.92791E-03,  -4.05307E-03,       1.83750,NA,NA,"",   5.07606E-03,  -433.681E-21,       1.83759,   76.0573E-06,   5.20447E+03
C:/ALETube/PressureUpdate/LargeStep/DeformErode/JobErode.odb,Step-1,Increment      4: Step Time =,    40.00,"TUBE-1",         24111,  -3.50742E-03,  -3.56342E-03,       1.83750,NA,NA,"",   5.07601E-03,            0.,       1.83759,   76.0090E-06,   5.19755E+03
C:/ALETube/PressureUpdate/LargeStep/DeformErode/JobErode.odb,Step-1,Increment      4: Step Time =,    40.00,"TUBE-1",         24334,  -2.92791E-03,  -4.05307E-03,       1.85000,NA,NA,"",   5.07623E-03,            0.,       1.85008,   76.2264E-06,   5.23982E+03
C:/ALETube/PressureUpdate/LargeStep/DeformErode/JobErode.odb,Step-1,Increment      4: Step Time =,    40.00,"TUBE-1",         24275,  -3.50742E-03,  -3.56342E-03,       1.85000,NA,NA,"",   5.07618E-03,            0.,       1.85008,   76.1779E-06,   5.23285E+03
C:/ALETube/PressureUpdate/LargeStep/DeformErode/JobErode.odb,Step-1,Increment      4: Step Time =,    40.00,"TUBE-1",         24498,  -2.92791E-03,  -4.05307E-03,       1.86250,NA,NA,"",   5.07640E-03,            0.,       1.86257,   76.3956E-06,   5.27528E+03
C:/ALETube/PressureUpdate/LargeStep/DeformErode/JobErode.odb,Step-1,Increment      4: Step Time =,    40.00,"TUBE-1",         24439,  -3.50742E-03,  -3.56342E-03,       1.86250,NA,NA,"",   5.07635E-03,            0.,       1.86257,   76.3471E-06,   5.26826E+03
C:/ALETube/PressureUpdate/LargeStep/DeformErode/JobErode.odb,Step-1,Increment      4: Step Time =,    40.00,"TUBE-1",         24662,  -2.92791E-03,  -4.05307E-03,         1.875,NA,NA,"",   5.07656E-03,   433.681E-21,       1.87507,   76.5646E-06,   5.31068E+03
C:/ALETube/PressureUpdate/LargeStep/DeformErode/JobErode.odb,Step-1,Increment      4: Step Time =,    40.00,"TUBE-1",         24603,  -3.50742E-03,  -3.56342E-03,         1.875,NA,NA,"",   5.07652E-03,            0.,       1.87507,   76.5161E-06,   5.30362E+03
C:/ALETube/PressureUpdate/LargeStep/DeformErode/JobErode.odb,Step-1,Increment      4: Step Time =,    40.00,"TUBE-1",         24767,  -3.50742E-03,  -3.56342E-03,       1.88750,NA,NA,"",   5.07668E-03,            0.,       1.88756,   76.6851E-06,   5.33900E+03
C:/ALETube/PressureUpdate/LargeStep/DeformErode/JobErode.odb,Step-1,Increment      4: Step Time =,    40.00,"TUBE-1",         24826,  -2.92791E-03,  -4.05307E-03,       1.88750,NA,NA,"",   5.07673E-03,            0.,       1.88756,   76.7338E-06,   5.34611E+03
C:/ALETube/PressureUpdate/LargeStep/DeformErode/JobErode.odb,Step-1,Increment      4: Step Time =,    40.00,"TUBE-1",         24990,  -2.92791E-03,  -4.05307E-03,       1.90000,NA,NA,"",   5.07690E-03,            0.,       1.90005,   76.9029E-06,   5.38153E+03
C:/ALETube/PressureUpdate/LargeStep/DeformErode/JobErode.odb,Step-1,Increment      4: Step Time =,    40.00,"TUBE-1",         24931,  -3.50742E-03,  -3.56342E-03,       1.90000,NA,NA,"",   5.07685E-03,   433.681E-21,       1.90005,   76.8542E-06,   5.37437E+03
C:/ALETube/PressureUpdate/LargeStep/DeformErode/JobErode.odb,Step-1,Increment      4: Step Time =,    40.00,"TUBE-1",         25154,  -2.92791E-03,  -4.05307E-03,       1.91250,NA,NA,"",   5.07707E-03,            0.,       1.91255,   77.0720E-06,   5.41694E+03
C:/ALETube/PressureUpdate/LargeStep/DeformErode/JobErode.odb,Step-1,Increment      4: Step Time =,    40.00,"TUBE-1",         25095,  -3.50742E-03,  -3.56342E-03,       1.91250,NA,NA,"",   5.07702E-03,   433.681E-21,       1.91255,   77.0233E-06,   5.40974E+03
C:/ALETube/PressureUpdate/LargeStep/DeformErode/JobErode.odb,Step-1,Increment      4: Step Time =,    40.00,"TUBE-1",         25318,  -2.92791E-03,  -4.05307E-03,       1.92500,NA,NA,"",   5.07724E-03,  -433.681E-21,       1.92504,   77.2411E-06,   5.45237E+03
C:/ALETube/PressureUpdate/LargeStep/DeformErode/JobErode.odb,Step-1,Increment      4: Step Time =,    40.00,"TUBE-1",         25259,  -3.50742E-03,  -3.56342E-03,       1.92500,NA,NA,"",   5.07719E-03,   433.681E-21,       1.92504,   77.1923E-06,   5.44512E+03
C:/ALETube/PressureUpdate/LargeStep/DeformErode/JobErode.odb,Step-1,Increment      4: Step Time =,    40.00,"TUBE-1",         25482,  -2.92791E-03,  -4.05307E-03,        1.9375,NA,NA,"",   5.07741E-03,            0.,       1.93753,   77.4101E-06,   5.48774E+03
C:/ALETube/PressureUpdate/LargeStep/DeformErode/JobErode.odb,Step-1,Increment      4: Step Time =,    40.00,"TUBE-1",         25423,  -3.50742E-03,  -3.56342E-03,        1.9375,NA,NA,"",   5.07736E-03,            0.,       1.93753,   77.3613E-06,   5.48046E+03
C:/ALETube/PressureUpdate/LargeStep/DeformErode/JobErode.odb,Step-1,Increment      4: Step Time =,    40.00,"TUBE-1",         25587,  -3.50742E-03,  -3.56342E-03,       1.95000,NA,NA,"",   5.07753E-03,            0.,       1.95003,   77.5308E-06,   5.51596E+03
C:/ALETube/PressureUpdate/LargeStep/DeformErode/JobErode.odb,Step-1,Increment      4: Step Time =,    40.00,"TUBE-1",         25646,  -2.92791E-03,  -4.05307E-03,       1.95000,NA,NA,"",   5.07758E-03,            0.,       1.95003,   77.5798E-06,   5.52333E+03
C:/ALETube/PressureUpdate/LargeStep/DeformErode/JobErode.odb,Step-1,Increment      4: Step Time =,    40.00,"TUBE-1",         25810,  -2.92791E-03,  -4.05307E-03,       1.96250,NA,NA,"",   5.07775E-03,            0.,       1.96252,   77.7478E-06,   5.55831E+03
C:/ALETube/PressureUpdate/LargeStep/DeformErode/JobErode.odb,Step-1,Increment      4: Step Time =,    40.00,"TUBE-1",         25751,  -3.50742E-03,  -3.56342E-03,       1.96250,NA,NA,"",   5.07770E-03,   433.681E-21,       1.96252,   77.6990E-06,   5.55100E+03
C:/ALETube/PressureUpdate/LargeStep/DeformErode/JobErode.odb,Step-1,Increment      4: Step Time =,    40.00,"TUBE-1",         25974,  -2.92791E-03,  -4.05307E-03,       1.97500,NA,NA,"",   5.07792E-03,   433.681E-21,       1.97501,   77.9162E-06,   5.59421E+03
C:/ALETube/PressureUpdate/LargeStep/DeformErode/JobErode.odb,Step-1,Increment      4: Step Time =,    40.00,"TUBE-1",         25915,  -3.50742E-03,  -3.56342E-03,       1.97500,NA,NA,"",   5.07787E-03,            0.,       1.97501,   77.8670E-06,   5.58660E+03
C:/ALETube/PressureUpdate/LargeStep/DeformErode/JobErode.odb,Step-1,Increment      4: Step Time =,    40.00,"TUBE-1",         26138,  -2.92791E-03,  -4.05307E-03,       1.98750,NA,NA,"",   5.07810E-03,            0.,       1.98751,   78.0969E-06,   5.63008E+03
C:/ALETube/PressureUpdate/LargeStep/DeformErode/JobErode.odb,Step-1,Increment      4: Step Time =,    40.00,"TUBE-1",         26079,  -3.50742E-03,  -3.56342E-03,       1.98750,NA,NA,"",   5.07805E-03,   433.681E-21,       1.98751,   78.0491E-06,   5.62362E+03
C:/ALETube/PressureUpdate/LargeStep/DeformErode/JobErode.odb,Step-1,Increment      4: Step Time =,    40.00,"TUBE-1",         26302,  -2.92791E-03,  -4.05307E-03,            2.,NA,NA,"",   5.07815E-03,  -433.681E-21,            2.,   78.1526E-06,   5.64086E+03
C:/ALETube/PressureUpdate/LargeStep/DeformErode/JobErode.odb,Step-1,Increment      4: Step Time =,    40.00,"TUBE-1",         26243,  -3.50742E-03,  -3.56342E-03,            2.,NA,NA,"",   5.07813E-03,  -433.681E-21,            2.,   78.1336E-06,   5.64797E+03
C:/ALETube/PressureUpdate/LargeStep/DeformErode/JobErode.odb,Step-1,Increment      5: Step Time =,    50.00,"TUBE-1",            62,  -2.92791E-03,  -4.05307E-03,            0.,NA,NA,"",   5.10211E-03,  -867.362E-21,   937.975E-06,   102.113E-06,       9.20056
C:/ALETube/PressureUpdate/LargeStep/DeformErode/JobErode.odb,Step-1,Increment      5: Step Time =,    50.00,"TUBE-1",             3,  -3.50742E-03,  -3.56342E-03,            0.,NA,NA,"",   5.10209E-03,            0.,   937.967E-06,   102.088E-06,       9.14378
C:/ALETube/PressureUpdate/LargeStep/DeformErode/JobErode.odb,Step-1,Increment      5: Step Time =,    50.00,"TUBE-1",           226,  -2.92791E-03,  -4.05307E-03,   12.5000E-03,NA,NA,"",   5.10161E-03,   272.682E-12,   13.3372E-03,   101.610E-06,       53.7941
C:/ALETube/PressureUpdate/LargeStep/DeformErode/JobErode.odb,Step-1,Increment      5: Step Time =,    50.00,"TUBE-1",           167,  -3.50742E-03,  -3.56342E-03,   12.5000E-03,NA,NA,"",   5.10156E-03,  -433.681E-21,   13.3373E-03,   101.558E-06,       53.7604
C:/ALETube/PressureUpdate/LargeStep/DeformErode/JobErode.odb,Step-1,Increment      5: Step Time =,    50.00,"TUBE-1",           331,  -3.50742E-03,  -3.56342E-03,   25.0000E-03,NA,NA,"",   5.10180E-03,   433.681E-21,   25.8373E-03,   101.796E-06,       105.789
C:/ALETube/PressureUpdate/LargeStep/DeformErode/JobErode.odb,Step-1,Increment      5: Step Time =,    50.00,"TUBE-1",           390,  -2.92791E-03,  -4.05307E-03,   25.0000E-03,NA,NA,"",   5.10185E-03,            0.,   25.8373E-03,   101.848E-06,       105.910
C:/ALETube/PressureUpdate/LargeStep/DeformErode/JobErode.odb,Step-1,Increment      5: Step Time =,    50.00,"TUBE-1",           554,  -2.92791E-03,  -4.05307E-03,   37.5000E-03,NA,NA,"",   5.10209E-03,            0.,   38.3371E-03,   102.092E-06,       157.815
C:/ALETube/PressureUpdate/LargeStep/DeformErode/JobErode.odb,Step-1,Increment      5: Step Time =,    50.00,"TUBE-1",           495,  -3.50742E-03,  -3.56342E-03,   37.5000E-03,NA,NA,"",   5.10204E-03,   433.681E-21,   38.3371E-03,   102.040E-06,       157.630
C:/ALETube/PressureUpdate/LargeStep/DeformErode/JobErode.odb,Step-1,Increment      5: Step Time =,    50.00,"TUBE-1",           718,  -2.92791E-03,  -4.05307E-03,   50.0000E-03,NA,NA,"",   5.10234E-03,            0.,   50.8369E-03,   102.340E-06,       210.857
C:/ALETube/PressureUpdate/LargeStep/DeformErode/JobErode.odb,Step-1,Increment      5: Step Time =,    50.00,"TUBE-1",           659,  -3.50742E-03,  -3.56342E-03,   50.0000E-03,NA,NA,"",   5.10229E-03,            0.,   50.8369E-03,   102.288E-06,       210.609
C:/ALETube/PressureUpdate/LargeStep/DeformErode/JobErode.odb,Step-1,Increment      5: Step Time =,    50.00,"TUBE-1",           823,  -3.50742E-03,  -3.56342E-03,      62.5E-03,NA,NA,"",   5.10253E-03,            0.,   63.3366E-03,   102.534E-06,       263.259
C:/ALETube/PressureUpdate/LargeStep/DeformErode/JobErode.odb,Step-1,Increment      5: Step Time =,    50.00,"TUBE-1",           882,  -2.92791E-03,  -4.05307E-03,      62.5E-03,NA,NA,"",   5.10259E-03,            0.,   63.3366E-03,   102.587E-06,       263.568
C:/ALETube/PressureUpdate/LargeStep/DeformErode/JobErode.odb,Step-1,Increment      5: Step Time =,    50.00,"TUBE-1",          1046,  -2.92791E-03,  -4.05307E-03,   75.0000E-03,NA,NA,"",   5.10283E-03,            0.,   75.8362E-03,   102.834E-06,       316.279
C:/ALETube/PressureUpdate/LargeStep/DeformErode/JobErode.odb,Step-1,Increment      5: Step Time =,    50.00,"TUBE-1",           987,  -3.50742E-03,  -3.56342E-03,   75.0000E-03,NA,NA,"",   5.10278E-03,            0.,   75.8362E-03,   102.780E-06,       315.908
C:/ALETube/PressureUpdate/LargeStep/DeformErode/JobErode.odb,Step-1,Increment      5: Step Time =,    50.00,"TUBE-1",          1210,  -2.92791E-03,  -4.05307E-03,   87.5000E-03,NA,NA,"",   5.10308E-03,  -433.681E-21,   88.3358E-03,   103.080E-06,       369.022
C:/ALETube/PressureUpdate/LargeStep/DeformErode/JobErode.odb,Step-1,Increment      5: Step Time =,    50.00,"TUBE-1",          1151,  -3.50742E-03,  -3.56342E-03,   87.5000E-03,NA,NA,"",   5.10303E-03,            0.,   88.3358E-03,   103.027E-06,       368.589
C:/ALETube/PressureUpdate/LargeStep/DeformErode/JobErode.odb,Step-1,Increment      5: Step Time =,    50.00,"TUBE-1",          1374,  -2.92791E-03,  -4.05307E-03,   100.000E-03,NA,NA,"",   5.10333E-03,            0.,   100.835E-03,   103.327E-06,       421.746
C:/ALETube/PressureUpdate/LargeStep/DeformErode/JobErode.odb,Step-1,Increment      5: Step Time =,    50.00,"TUBE-1",          1315,  -3.50742E-03,  -3.56342E-03,   100.000E-03,NA,NA,"",   5.10327E-03,   433.681E-21,   100.835E-03,   103.274E-06,       421.251
C:/ALETube/PressureUpdate/LargeStep/DeformErode/JobErode.odb,Step-1,Increment      5: Step Time =,    50.00,"TUBE-1",          1538,  -2.92791E-03,  -4.05307E-03,   112.500E-03,NA,NA,"",   5.10357E-03,   433.681E-21,   113.335E-03,   103.574E-06,       474.473
C:/ALETube/PressureUpdate/LargeStep/DeformErode/JobErode.odb,Step-1,Increment      5: Step Time =,    50.00,"TUBE-1",          1479,  -3.50742E-03,  -3.56342E-03,   112.500E-03,NA,NA,"",   5.10352E-03,            0.,   113.335E-03,   103.520E-06,       473.916
C:/ALETube/PressureUpdate/LargeStep/DeformErode/JobErode.odb,Step-1,Increment      5: Step Time =,    50.00,"TUBE-1",          1643,  -3.50742E-03,  -3.56342E-03,      125.E-03,NA,NA,"",   5.10377E-03,   433.681E-21,   125.834E-03,   103.767E-06,       526.576
C:/ALETube/PressureUpdate/LargeStep/DeformErode/JobErode.odb,Step-1,Increment      5: Step Time =,    50.00,"TUBE-1",          1702,  -2.92791E-03,  -4.05307E-03,      125.E-03,NA,NA,"",   5.10382E-03,            0.,   125.834E-03,   103.820E-06,       527.194
C:/ALETube/PressureUpdate/LargeStep/DeformErode/JobErode.odb,Step-1,Increment      5: Step Time =,    50.00,"TUBE-1",          1866,  -2.92791E-03,  -4.05307E-03,   137.500E-03,NA,NA,"",   5.10407E-03,            0.,   138.333E-03,   104.067E-06,       579.914
C:/ALETube/PressureUpdate/LargeStep/DeformErode/JobErode.odb,Step-1,Increment      5: Step Time =,    50.00,"TUBE-1",          1807,  -3.50742E-03,  -3.56342E-03,   137.500E-03,NA,NA,"",   5.10401E-03,            0.,   138.333E-03,   104.013E-06,       579.234
C:/ALETube/PressureUpdate/LargeStep/DeformErode/JobErode.odb,Step-1,Increment      5: Step Time =,    50.00,"TUBE-1",          2030,  -2.92791E-03,  -4.05307E-03,   150.000E-03,NA,NA,"",   5.10431E-03,            0.,   150.833E-03,   104.314E-06,       632.631
C:/ALETube/PressureUpdate/LargeStep/DeformErode/JobErode.odb,Step-1,Increment      5: Step Time =,    50.00,"TUBE-1",          1971,  -3.50742E-03,  -3.56342E-03,   150.000E-03,NA,NA,"",   5.10426E-03,   433.681E-21,   150.833E-03,   104.260E-06,       631.889
C:/ALETube/PressureUpdate/LargeStep/DeformErode/JobErode.odb,Step-1,Increment      5: Step Time =,    50.00,"TUBE-1",          2194,  -2.92791E-03,  -4.05307E-03,   162.500E-03,NA,NA,"",   5.10456E-03,  -433.681E-21,   163.332E-03,   104.560E-06,       685.345
C:/ALETube/PressureUpdate/LargeStep/DeformErode/JobErode.odb,Step-1,Increment      5: Step Time =,    50.00,"TUBE-1",          2135,  -3.50742E-03,  -3.56342E-03,   162.500E-03,NA,NA,"",   5.10451E-03,            0.,   163.332E-03,   104.506E-06,       684.541
C:/ALETube/PressureUpdate/LargeStep/DeformErode/JobErode.odb,Step-1,Increment      5: Step Time =,    50.00,"TUBE-1",          2358,  -2.92791E-03,  -4.05307E-03,   175.000E-03,NA,NA,"",   5.10481E-03,            0.,   175.831E-03,   104.807E-06,       738.056
C:/ALETube/PressureUpdate/LargeStep/DeformErode/JobErode.odb,Step-1,Increment      5: Step Time =,    50.00,"TUBE-1",          2299,  -3.50742E-03,  -3.56342E-03,   175.000E-03,NA,NA,"",   5.10475E-03,            0.,   175.831E-03,   104.753E-06,       737.191
C:/ALETube/PressureUpdate/LargeStep/DeformErode/JobErode.odb,Step-1,Increment      5: Step Time =,    50.00,"TUBE-1",          2463,  -3.50742E-03,  -3.56342E-03,     187.5E-03,NA,NA,"",   5.10500E-03,            0.,   188.330E-03,   104.999E-06,       789.837
C:/ALETube/PressureUpdate/LargeStep/DeformErode/JobErode.odb,Step-1,Increment      5: Step Time =,    50.00,"TUBE-1",          2522,  -2.92791E-03,  -4.05307E-03,     187.5E-03,NA,NA,"",   5.10505E-03,            0.,   188.330E-03,   105.054E-06,       790.764
C:/ALETube/PressureUpdate/LargeStep/DeformErode/JobErode.odb,Step-1,Increment      5: Step Time =,    50.00,"TUBE-1",          2686,  -2.92791E-03,  -4.05307E-03,   200.000E-03,NA,NA,"",   5.10530E-03,            0.,   200.829E-03,   105.300E-06,       843.469
C:/ALETube/PressureUpdate/LargeStep/DeformErode/JobErode.odb,Step-1,Increment      5: Step Time =,    50.00,"TUBE-1",          2627,  -3.50742E-03,  -3.56342E-03,   200.000E-03,NA,NA,"",   5.10525E-03,            0.,   200.829E-03,   105.246E-06,       842.480
C:/ALETube/PressureUpdate/LargeStep/DeformErode/JobErode.odb,Step-1,Increment      5: Step Time =,    50.00,"TUBE-1",          2850,  -2.92791E-03,  -4.05307E-03,   212.500E-03,NA,NA,"",   5.10555E-03,  -433.681E-21,   213.328E-03,   105.547E-06,       896.171
C:/ALETube/PressureUpdate/LargeStep/DeformErode/JobErode.odb,Step-1,Increment      5: Step Time =,    50.00,"TUBE-1",          2791,  -3.50742E-03,  -3.56342E-03,   212.500E-03,NA,NA,"",   5.10549E-03,   433.681E-21,   213.328E-03,   105.492E-06,       895.121
C:/ALETube/PressureUpdate/LargeStep/DeformErode/JobErode.odb,Step-1,Increment      5: Step Time =,    50.00,"TUBE-1",          3014,  -2.92791E-03,  -4.05307E-03,   225.000E-03,NA,NA,"",   5.10579E-03,            0.,   225.827E-03,   105.794E-06,       948.871
C:/ALETube/PressureUpdate/LargeStep/DeformErode/JobErode.odb,Step-1,Increment      5: Step Time =,    50.00,"TUBE-1",          2955,  -3.50742E-03,  -3.56342E-03,   225.000E-03,NA,NA,"",   5.10574E-03,   433.681E-21,   225.827E-03,   105.739E-06,       947.758
C:/ALETube/PressureUpdate/LargeStep/DeformErode/JobErode.odb,Step-1,Increment      5: Step Time =,    50.00,"TUBE-1",          3178,  -2.92791E-03,  -4.05307E-03,   237.500E-03,NA,NA,"",   5.10604E-03,            0.,   238.326E-03,   106.041E-06,   1.00157E+03
C:/ALETube/PressureUpdate/LargeStep/DeformErode/JobErode.odb,Step-1,Increment      5: Step Time =,    50.00,"TUBE-1",          3119,  -3.50742E-03,  -3.56342E-03,   237.500E-03,NA,NA,"",   5.10599E-03,            0.,   238.326E-03,   105.985E-06,   1.00039E+03
C:/ALETube/PressureUpdate/LargeStep/DeformErode/JobErode.odb,Step-1,Increment      5: Step Time =,    50.00,"TUBE-1",          3283,  -3.50742E-03,  -3.56342E-03,      250.E-03,NA,NA,"",   5.10623E-03,            0.,   250.824E-03,   106.232E-06,   1.05302E+03
C:/ALETube/PressureUpdate/LargeStep/DeformErode/JobErode.odb,Step-1,Increment      5: Step Time =,    50.00,"TUBE-1",          3342,  -2.92791E-03,  -4.05307E-03,      250.E-03,NA,NA,"",   5.10629E-03,            0.,   250.824E-03,   106.287E-06,   1.05426E+03
C:/ALETube/PressureUpdate/LargeStep/DeformErode/JobErode.odb,Step-1,Increment      5: Step Time =,    50.00,"TUBE-1",          3506,  -2.92791E-03,  -4.05307E-03,   262.500E-03,NA,NA,"",   5.10653E-03,            0.,   263.323E-03,   106.534E-06,   1.10695E+03
C:/ALETube/PressureUpdate/LargeStep/DeformErode/JobErode.odb,Step-1,Increment      5: Step Time =,    50.00,"TUBE-1",          3447,  -3.50742E-03,  -3.56342E-03,   262.500E-03,NA,NA,"",   5.10648E-03,            0.,   263.323E-03,   106.478E-06,   1.10565E+03
C:/ALETube/PressureUpdate/LargeStep/DeformErode/JobErode.odb,Step-1,Increment      5: Step Time =,    50.00,"TUBE-1",          3670,  -2.92791E-03,  -4.05307E-03,   275.000E-03,NA,NA,"",   5.10678E-03,  -433.681E-21,   275.822E-03,   106.781E-06,   1.15964E+03
C:/ALETube/PressureUpdate/LargeStep/DeformErode/JobErode.odb,Step-1,Increment      5: Step Time =,    50.00,"TUBE-1",          3611,  -3.50742E-03,  -3.56342E-03,   275.000E-03,NA,NA,"",   5.10672E-03,   433.681E-21,   275.822E-03,   106.725E-06,   1.15828E+03
C:/ALETube/PressureUpdate/LargeStep/DeformErode/JobErode.odb,Step-1,Increment      5: Step Time =,    50.00,"TUBE-1",          3834,  -2.92791E-03,  -4.05307E-03,   287.500E-03,NA,NA,"",   5.10703E-03,            0.,   288.320E-03,   107.027E-06,   1.21232E+03
C:/ALETube/PressureUpdate/LargeStep/DeformErode/JobErode.odb,Step-1,Increment      5: Step Time =,    50.00,"TUBE-1",          3775,  -3.50742E-03,  -3.56342E-03,   287.500E-03,NA,NA,"",   5.10697E-03,            0.,   288.320E-03,   106.971E-06,   1.21090E+03
C:/ALETube/PressureUpdate/LargeStep/DeformErode/JobErode.odb,Step-1,Increment      5: Step Time =,    50.00,"TUBE-1",          3998,  -2.92791E-03,  -4.05307E-03,   300.000E-03,NA,NA,"",   5.10727E-03,            0.,   300.818E-03,   107.274E-06,   1.26501E+03
C:/ALETube/PressureUpdate/LargeStep/DeformErode/JobErode.odb,Step-1,Increment      5: Step Time =,    50.00,"TUBE-1",          3939,  -3.50742E-03,  -3.56342E-03,   300.000E-03,NA,NA,"",   5.10722E-03,  -433.681E-21,   300.818E-03,   107.218E-06,   1.26352E+03
C:/ALETube/PressureUpdate/LargeStep/DeformErode/JobErode.odb,Step-1,Increment      5: Step Time =,    50.00,"TUBE-1",          4103,  -3.50742E-03,  -3.56342E-03,     312.5E-03,NA,NA,"",   5.10746E-03,            0.,   313.317E-03,   107.464E-06,   1.31614E+03
C:/ALETube/PressureUpdate/LargeStep/DeformErode/JobErode.odb,Step-1,Increment      5: Step Time =,    50.00,"TUBE-1",          4162,  -2.92791E-03,  -4.05307E-03,     312.5E-03,NA,NA,"",   5.10752E-03,            0.,   313.317E-03,   107.521E-06,   1.31768E+03
C:/ALETube/PressureUpdate/LargeStep/DeformErode/JobErode.odb,Step-1,Increment      5: Step Time =,    50.00,"TUBE-1",          4326,  -2.92791E-03,  -4.05307E-03,   325.000E-03,NA,NA,"",   5.10777E-03,            0.,   325.815E-03,   107.767E-06,   1.37036E+03
C:/ALETube/PressureUpdate/LargeStep/DeformErode/JobErode.odb,Step-1,Increment      5: Step Time =,    50.00,"TUBE-1",          4267,  -3.50742E-03,  -3.56342E-03,   325.000E-03,NA,NA,"",   5.10771E-03,            0.,   325.815E-03,   107.711E-06,   1.36875E+03
C:/ALETube/PressureUpdate/LargeStep/DeformErode/JobErode.odb,Step-1,Increment      5: Step Time =,    50.00,"TUBE-1",          4490,  -2.92791E-03,  -4.05307E-03,   337.500E-03,NA,NA,"",   5.10801E-03,            0.,   338.313E-03,   108.014E-06,   1.42303E+03
C:/ALETube/PressureUpdate/LargeStep/DeformErode/JobErode.odb,Step-1,Increment      5: Step Time =,    50.00,"TUBE-1",          4431,  -3.50742E-03,  -3.56342E-03,   337.500E-03,NA,NA,"",   5.10796E-03,   433.681E-21,   338.313E-03,   107.957E-06,   1.42137E+03
C:/ALETube/PressureUpdate/LargeStep/DeformErode/JobErode.odb,Step-1,Increment      5: Step Time =,    50.00,"TUBE-1",          4654,  -2.92791E-03,  -4.05307E-03,   350.000E-03,NA,NA,"",   5.10826E-03,            0.,   350.812E-03,   108.261E-06,   1.47570E+03
C:/ALETube/PressureUpdate/LargeStep/DeformErode/JobErode.odb,Step-1,Increment      5: Step Time =,    50.00,"TUBE-1",          4595,  -3.50742E-03,  -3.56342E-03,   350.000E-03,NA,NA,"",   5.10820E-03,            0.,   350.812E-03,   108.204E-06,   1.47397E+03
C:/ALETube/PressureUpdate/LargeStep/DeformErode/JobErode.odb,Step-1,Increment      5: Step Time =,    50.00,"TUBE-1",          4818,  -2.92791E-03,  -4.05307E-03,   362.500E-03,NA,NA,"",   5.10851E-03,  -433.681E-21,   363.310E-03,   108.507E-06,   1.52837E+03
C:/ALETube/PressureUpdate/LargeStep/DeformErode/JobErode.odb,Step-1,Increment      5: Step Time =,    50.00,"TUBE-1",          4759,  -3.50742E-03,  -3.56342E-03,   362.500E-03,NA,NA,"",   5.10845E-03,  -433.681E-21,   363.310E-03,   108.450E-06,   1.52658E+03
C:/ALETube/PressureUpdate/LargeStep/DeformErode/JobErode.odb,Step-1,Increment      5: Step Time =,    50.00,"TUBE-1",          4923,  -3.50742E-03,  -3.56342E-03,      375.E-03,NA,NA,"",   5.10870E-03,            0.,   375.808E-03,   108.697E-06,   1.57918E+03
C:/ALETube/PressureUpdate/LargeStep/DeformErode/JobErode.odb,Step-1,Increment      5: Step Time =,    50.00,"TUBE-1",          4982,  -2.92791E-03,  -4.05307E-03,      375.E-03,NA,NA,"",   5.10875E-03,            0.,   375.808E-03,   108.754E-06,   1.58103E+03
C:/ALETube/PressureUpdate/LargeStep/DeformErode/JobErode.odb,Step-1,Increment      5: Step Time =,    50.00,"TUBE-1",          5146,  -2.92791E-03,  -4.05307E-03,   387.500E-03,NA,NA,"",   5.10900E-03,   188.736E-12,   388.306E-03,   109.001E-06,   1.63369E+03
C:/ALETube/PressureUpdate/LargeStep/DeformErode/JobErode.odb,Step-1,Increment      5: Step Time =,    50.00,"TUBE-1",          5087,  -3.50742E-03,  -3.56342E-03,   387.500E-03,NA,NA,"",   5.10894E-03,            0.,   388.306E-03,   108.944E-06,   1.63178E+03
C:/ALETube/PressureUpdate/LargeStep/DeformErode/JobErode.odb,Step-1,Increment      5: Step Time =,    50.00,"TUBE-1",          5310,  -2.92791E-03,  -4.05307E-03,   400.000E-03,NA,NA,"",   5.10925E-03,            0.,   400.804E-03,   109.247E-06,   1.68635E+03
C:/ALETube/PressureUpdate/LargeStep/DeformErode/JobErode.odb,Step-1,Increment      5: Step Time =,    50.00,"TUBE-1",          5251,  -3.50742E-03,  -3.56342E-03,   400.000E-03,NA,NA,"",   5.10919E-03,   165.935E-12,   400.804E-03,   109.190E-06,   1.68438E+03
C:/ALETube/PressureUpdate/LargeStep/DeformErode/JobErode.odb,Step-1,Increment      5: Step Time =,    50.00,"TUBE-1",          5474,  -2.92791E-03,  -4.05307E-03,   412.500E-03,NA,NA,"",   5.10949E-03,  -433.681E-21,   413.302E-03,   109.494E-06,   1.73901E+03
C:/ALETube/PressureUpdate/LargeStep/DeformErode/JobErode.odb,Step-1,Increment      5: Step Time =,    50.00,"TUBE-1",          5415,  -3.50742E-03,  -3.56342E-03,   412.500E-03,NA,NA,"",   5.10944E-03,  -433.681E-21,   413.302E-03,   109.437E-06,   1.73697E+03
C:/ALETube/PressureUpdate/LargeStep/DeformErode/JobErode.odb,Step-1,Increment      5: Step Time =,    50.00,"TUBE-1",          5638,  -2.92791E-03,  -4.05307E-03,   425.000E-03,NA,NA,"",   5.10974E-03,  -433.681E-21,   425.799E-03,   109.741E-06,   1.79166E+03
C:/ALETube/PressureUpdate/LargeStep/DeformErode/JobErode.odb,Step-1,Increment      5: Step Time =,    50.00,"TUBE-1",          5579,  -3.50742E-03,  -3.56342E-03,   425.000E-03,NA,NA,"",   5.10968E-03,   433.681E-21,   425.799E-03,   109.683E-06,   1.78956E+03
C:/ALETube/PressureUpdate/LargeStep/DeformErode/JobErode.odb,Step-1,Increment      5: Step Time =,    50.00,"TUBE-1",          5743,  -3.50742E-03,  -3.56342E-03,     437.5E-03,NA,NA,"",   5.10993E-03,            0.,   438.297E-03,   109.930E-06,   1.84215E+03
C:/ALETube/PressureUpdate/LargeStep/DeformErode/JobErode.odb,Step-1,Increment      5: Step Time =,    50.00,"TUBE-1",          5802,  -2.92791E-03,  -4.05307E-03,     437.5E-03,NA,NA,"",   5.10999E-03,  -433.681E-21,   438.297E-03,   109.987E-06,   1.84431E+03
C:/ALETube/PressureUpdate/LargeStep/DeformErode/JobErode.odb,Step-1,Increment      5: Step Time =,    50.00,"TUBE-1",          5966,  -2.92791E-03,  -4.05307E-03,   450.000E-03,NA,NA,"",   5.11023E-03,            0.,   450.795E-03,   110.234E-06,   1.89696E+03
C:/ALETube/PressureUpdate/LargeStep/DeformErode/JobErode.odb,Step-1,Increment      5: Step Time =,    50.00,"TUBE-1",          5907,  -3.50742E-03,  -3.56342E-03,   450.000E-03,NA,NA,"",   5.11018E-03,   433.681E-21,   450.795E-03,   110.176E-06,   1.89473E+03
C:/ALETube/PressureUpdate/LargeStep/DeformErode/JobErode.odb,Step-1,Increment      5: Step Time =,    50.00,"TUBE-1",          6130,  -2.92791E-03,  -4.05307E-03,   462.500E-03,NA,NA,"",   5.11048E-03,            0.,   463.292E-03,   110.481E-06,   1.94960E+03
C:/ALETube/PressureUpdate/LargeStep/DeformErode/JobErode.odb,Step-1,Increment      5: Step Time =,    50.00,"TUBE-1",          6071,  -3.50742E-03,  -3.56342E-03,   462.500E-03,NA,NA,"",   5.11042E-03,   433.681E-21,   463.292E-03,   110.423E-06,   1.94731E+03
C:/ALETube/PressureUpdate/LargeStep/DeformErode/JobErode.odb,Step-1,Increment      5: Step Time =,    50.00,"TUBE-1",          6294,  -2.92791E-03,  -4.05307E-03,   475.000E-03,NA,NA,"",   5.11073E-03,            0.,   475.790E-03,   110.727E-06,   2.00224E+03
C:/ALETube/PressureUpdate/LargeStep/DeformErode/JobErode.odb,Step-1,Increment      5: Step Time =,    50.00,"TUBE-1",          6235,  -3.50742E-03,  -3.56342E-03,   475.000E-03,NA,NA,"",   5.11067E-03,            0.,   475.790E-03,   110.669E-06,   1.99989E+03
C:/ALETube/PressureUpdate/LargeStep/DeformErode/JobErode.odb,Step-1,Increment      5: Step Time =,    50.00,"TUBE-1",          6458,  -2.92791E-03,  -4.05307E-03,   487.500E-03,NA,NA,"",   5.11097E-03,  -433.681E-21,   488.287E-03,   110.974E-06,   2.05488E+03
C:/ALETube/PressureUpdate/LargeStep/DeformErode/JobErode.odb,Step-1,Increment      5: Step Time =,    50.00,"TUBE-1",          6399,  -3.50742E-03,  -3.56342E-03,   487.500E-03,NA,NA,"",   5.11092E-03,            0.,   488.287E-03,   110.916E-06,   2.05247E+03
C:/ALETube/PressureUpdate/LargeStep/DeformErode/JobErode.odb,Step-1,Increment      5: Step Time =,    50.00,"TUBE-1",          6563,  -3.50742E-03,  -3.56342E-03,      500.E-03,NA,NA,"",   5.11116E-03,   433.681E-21,   500.785E-03,   111.162E-06,   2.10504E+03
C:/ALETube/PressureUpdate/LargeStep/DeformErode/JobErode.odb,Step-1,Increment      5: Step Time =,    50.00,"TUBE-1",          6622,  -2.92791E-03,  -4.05307E-03,      500.E-03,NA,NA,"",   5.11122E-03,            0.,   500.785E-03,   111.221E-06,   2.10751E+03
C:/ALETube/PressureUpdate/LargeStep/DeformErode/JobErode.odb,Step-1,Increment      5: Step Time =,    50.00,"TUBE-1",          6786,  -2.92791E-03,  -4.05307E-03,   512.500E-03,NA,NA,"",   5.11147E-03,   188.736E-12,   513.282E-03,   111.468E-06,   2.16014E+03
C:/ALETube/PressureUpdate/LargeStep/DeformErode/JobErode.odb,Step-1,Increment      5: Step Time =,    50.00,"TUBE-1",          6727,  -3.50742E-03,  -3.56342E-03,   512.500E-03,NA,NA,"",   5.11141E-03,            0.,   513.282E-03,   111.409E-06,   2.15761E+03
C:/ALETube/PressureUpdate/LargeStep/DeformErode/JobErode.odb,Step-1,Increment      5: Step Time =,    50.00,"TUBE-1",          6950,  -2.92791E-03,  -4.05307E-03,   525.000E-03,NA,NA,"",   5.11171E-03,            0.,   525.779E-03,   111.714E-06,   2.21277E+03
C:/ALETube/PressureUpdate/LargeStep/DeformErode/JobErode.odb,Step-1,Increment      5: Step Time =,    50.00,"TUBE-1",          6891,  -3.50742E-03,  -3.56342E-03,   525.000E-03,NA,NA,"",   5.11166E-03,            0.,   525.779E-03,   111.655E-06,   2.21018E+03
C:/ALETube/PressureUpdate/LargeStep/DeformErode/JobErode.odb,Step-1,Increment      5: Step Time =,    50.00,"TUBE-1",          7114,  -2.92791E-03,  -4.05307E-03,   537.500E-03,NA,NA,"",   5.11196E-03,   433.681E-21,   538.277E-03,   111.961E-06,   2.26540E+03
C:/ALETube/PressureUpdate/LargeStep/DeformErode/JobErode.odb,Step-1,Increment      5: Step Time =,    50.00,"TUBE-1",          7055,  -3.50742E-03,  -3.56342E-03,   537.500E-03,NA,NA,"",   5.11190E-03,            0.,   538.277E-03,   111.902E-06,   2.26274E+03
C:/ALETube/PressureUpdate/LargeStep/DeformErode/JobErode.odb,Step-1,Increment      5: Step Time =,    50.00,"TUBE-1",          7278,  -2.92791E-03,  -4.05307E-03,   550.000E-03,NA,NA,"",   5.11221E-03,            0.,   550.774E-03,   112.208E-06,   2.31802E+03
C:/ALETube/PressureUpdate/LargeStep/DeformErode/JobErode.odb,Step-1,Increment      5: Step Time =,    50.00,"TUBE-1",          7219,  -3.50742E-03,  -3.56342E-03,   550.000E-03,NA,NA,"",   5.11215E-03,            0.,   550.774E-03,   112.148E-06,   2.31530E+03
C:/ALETube/PressureUpdate/LargeStep/DeformErode/JobErode.odb,Step-1,Increment      5: Step Time =,    50.00,"TUBE-1",          7383,  -3.50742E-03,  -3.56342E-03,     562.5E-03,NA,NA,"",   5.11239E-03,            0.,   563.271E-03,   112.395E-06,   2.36786E+03
C:/ALETube/PressureUpdate/LargeStep/DeformErode/JobErode.odb,Step-1,Increment      5: Step Time =,    50.00,"TUBE-1",          7442,  -2.92791E-03,  -4.05307E-03,     562.5E-03,NA,NA,"",   5.11245E-03,            0.,   563.271E-03,   112.454E-06,   2.37064E+03
C:/ALETube/PressureUpdate/LargeStep/DeformErode/JobErode.odb,Step-1,Increment      5: Step Time =,    50.00,"TUBE-1",          7606,  -2.92791E-03,  -4.05307E-03,   575.000E-03,NA,NA,"",   5.11270E-03,            0.,   575.768E-03,   112.701E-06,   2.42326E+03
C:/ALETube/PressureUpdate/LargeStep/DeformErode/JobErode.odb,Step-1,Increment      5: Step Time =,    50.00,"TUBE-1",          7547,  -3.50742E-03,  -3.56342E-03,   575.000E-03,NA,NA,"",   5.11264E-03,            0.,   575.768E-03,   112.641E-06,   2.42042E+03
C:/ALETube/PressureUpdate/LargeStep/DeformErode/JobErode.odb,Step-1,Increment      5: Step Time =,    50.00,"TUBE-1",          7770,  -2.92791E-03,  -4.05307E-03,   587.500E-03,NA,NA,"",   5.11295E-03,  -433.681E-21,   588.265E-03,   112.948E-06,   2.47587E+03
C:/ALETube/PressureUpdate/LargeStep/DeformErode/JobErode.odb,Step-1,Increment      5: Step Time =,    50.00,"TUBE-1",          7711,  -3.50742E-03,  -3.56342E-03,   587.500E-03,NA,NA,"",   5.11289E-03,            0.,   588.265E-03,   112.888E-06,   2.47297E+03
C:/ALETube/PressureUpdate/LargeStep/DeformErode/JobErode.odb,Step-1,Increment      5: Step Time =,    50.00,"TUBE-1",          7934,  -2.92791E-03,  -4.05307E-03,   600.000E-03,NA,NA,"",   5.11319E-03,  -433.681E-21,   600.762E-03,   113.194E-06,   2.52848E+03
C:/ALETube/PressureUpdate/LargeStep/DeformErode/JobErode.odb,Step-1,Increment      5: Step Time =,    50.00,"TUBE-1",          7875,  -3.50742E-03,  -3.56342E-03,   600.000E-03,NA,NA,"",   5.11313E-03,            0.,   600.762E-03,   113.134E-06,   2.52552E+03
C:/ALETube/PressureUpdate/LargeStep/DeformErode/JobErode.odb,Step-1,Increment      5: Step Time =,    50.00,"TUBE-1",          8098,  -2.92791E-03,  -4.05307E-03,   612.500E-03,NA,NA,"",   5.11344E-03,  -433.681E-21,   613.258E-03,   113.441E-06,   2.58109E+03
C:/ALETube/PressureUpdate/LargeStep/DeformErode/JobErode.odb,Step-1,Increment      5: Step Time =,    50.00,"TUBE-1",          8039,  -3.50742E-03,  -3.56342E-03,   612.500E-03,NA,NA,"",   5.11338E-03,            0.,   613.258E-03,   113.381E-06,   2.57807E+03
C:/ALETube/PressureUpdate/LargeStep/DeformErode/JobErode.odb,Step-1,Increment      5: Step Time =,    50.00,"TUBE-1",          8203,  -3.50742E-03,  -3.56342E-03,      625.E-03,NA,NA,"",   5.11363E-03,  -433.681E-21,   625.755E-03,   113.627E-06,   2.63061E+03
C:/ALETube/PressureUpdate/LargeStep/DeformErode/JobErode.odb,Step-1,Increment      5: Step Time =,    50.00,"TUBE-1",          8262,  -2.92791E-03,  -4.05307E-03,      625.E-03,NA,NA,"",   5.11369E-03,            0.,   625.755E-03,   113.688E-06,   2.63369E+03
C:/ALETube/PressureUpdate/LargeStep/DeformErode/JobErode.odb,Step-1,Increment      5: Step Time =,    50.00,"TUBE-1",          8426,  -2.92791E-03,  -4.05307E-03,   637.500E-03,NA,NA,"",   5.11393E-03,            0.,   638.252E-03,   113.934E-06,   2.68630E+03
C:/ALETube/PressureUpdate/LargeStep/DeformErode/JobErode.odb,Step-1,Increment      5: Step Time =,    50.00,"TUBE-1",          8367,  -3.50742E-03,  -3.56342E-03,   637.500E-03,NA,NA,"",   5.11387E-03,            0.,   638.252E-03,   113.874E-06,   2.68315E+03
C:/ALETube/PressureUpdate/LargeStep/DeformErode/JobErode.odb,Step-1,Increment      5: Step Time =,    50.00,"TUBE-1",          8590,  -2.92791E-03,  -4.05307E-03,   650.000E-03,NA,NA,"",   5.11418E-03,   433.681E-21,   650.748E-03,   114.181E-06,   2.73890E+03
C:/ALETube/PressureUpdate/LargeStep/DeformErode/JobErode.odb,Step-1,Increment      5: Step Time =,    50.00,"TUBE-1",          8531,  -3.50742E-03,  -3.56342E-03,   650.000E-03,NA,NA,"",   5.11412E-03,            0.,   650.748E-03,   114.120E-06,   2.73569E+03
C:/ALETube/PressureUpdate/LargeStep/DeformErode/JobErode.odb,Step-1,Increment      5: Step Time =,    50.00,"TUBE-1",          8754,  -2.92791E-03,  -4.05307E-03,   662.500E-03,NA,NA,"",   5.11443E-03,            0.,   663.245E-03,   114.428E-06,   2.79149E+03
C:/ALETube/PressureUpdate/LargeStep/DeformErode/JobErode.odb,Step-1,Increment      5: Step Time =,    50.00,"TUBE-1",          8695,  -3.50742E-03,  -3.56342E-03,   662.500E-03,NA,NA,"",   5.11437E-03,            0.,   663.245E-03,   114.367E-06,   2.78822E+03
C:/ALETube/PressureUpdate/LargeStep/DeformErode/JobErode.odb,Step-1,Increment      5: Step Time =,    50.00,"TUBE-1",          8918,  -2.92791E-03,  -4.05307E-03,   675.000E-03,NA,NA,"",   5.11467E-03,   272.682E-12,   675.742E-03,   114.674E-06,   2.84409E+03
C:/ALETube/PressureUpdate/LargeStep/DeformErode/JobErode.odb,Step-1,Increment      5: Step Time =,    50.00,"TUBE-1",          8859,  -3.50742E-03,  -3.56342E-03,   675.000E-03,NA,NA,"",   5.11461E-03,            0.,   675.742E-03,   114.613E-06,   2.84076E+03
C:/ALETube/PressureUpdate/LargeStep/DeformErode/JobErode.odb,Step-1,Increment      5: Step Time =,    50.00,"TUBE-1",          9023,  -3.50742E-03,  -3.56342E-03,     687.5E-03,NA,NA,"",   5.11486E-03,            0.,   688.238E-03,   114.860E-06,   2.89328E+03
C:/ALETube/PressureUpdate/LargeStep/DeformErode/JobErode.odb,Step-1,Increment      5: Step Time =,    50.00,"TUBE-1",          9082,  -2.92791E-03,  -4.05307E-03,     687.5E-03,NA,NA,"",   5.11492E-03,  -433.681E-21,   688.238E-03,   114.921E-06,   2.89668E+03
C:/ALETube/PressureUpdate/LargeStep/DeformErode/JobErode.odb,Step-1,Increment      5: Step Time =,    50.00,"TUBE-1",          9246,  -2.92791E-03,  -4.05307E-03,   700.000E-03,NA,NA,"",   5.11517E-03,            0.,   700.734E-03,   115.167E-06,   2.94926E+03
C:/ALETube/PressureUpdate/LargeStep/DeformErode/JobErode.odb,Step-1,Increment      5: Step Time =,    50.00,"TUBE-1",          9187,  -3.50742E-03,  -3.56342E-03,   700.000E-03,NA,NA,"",   5.11511E-03,  -433.681E-21,   700.734E-03,   115.106E-06,   2.94581E+03
C:/ALETube/PressureUpdate/LargeStep/DeformErode/JobErode.odb,Step-1,Increment      5: Step Time =,    50.00,"TUBE-1",          9410,  -2.92791E-03,  -4.05307E-03,   712.500E-03,NA,NA,"",   5.11541E-03,  -433.681E-21,   713.231E-03,   115.414E-06,   3.00185E+03
C:/ALETube/PressureUpdate/LargeStep/DeformErode/JobErode.odb,Step-1,Increment      5: Step Time =,    50.00,"TUBE-1",          9351,  -3.50742E-03,  -3.56342E-03,   712.500E-03,NA,NA,"",   5.11535E-03,            0.,   713.231E-03,   115.353E-06,   2.99833E+03
C:/ALETube/PressureUpdate/LargeStep/DeformErode/JobErode.odb,Step-1,Increment      5: Step Time =,    50.00,"TUBE-1",          9574,  -2.92791E-03,  -4.05307E-03,   725.000E-03,NA,NA,"",   5.11566E-03,            0.,   725.727E-03,   115.661E-06,   3.05443E+03
C:/ALETube/PressureUpdate/LargeStep/DeformErode/JobErode.odb,Step-1,Increment      5: Step Time =,    50.00,"TUBE-1",          9515,  -3.50742E-03,  -3.56342E-03,   725.000E-03,NA,NA,"",   5.11560E-03,            0.,   725.727E-03,   115.599E-06,   3.05085E+03
C:/ALETube/PressureUpdate/LargeStep/DeformErode/JobErode.odb,Step-1,Increment      5: Step Time =,    50.00,"TUBE-1",          9738,  -2.92791E-03,  -4.05307E-03,   737.500E-03,NA,NA,"",   5.11591E-03,   433.681E-21,   738.223E-03,   115.907E-06,   3.10701E+03
C:/ALETube/PressureUpdate/LargeStep/DeformErode/JobErode.odb,Step-1,Increment      5: Step Time =,    50.00,"TUBE-1",          9679,  -3.50742E-03,  -3.56342E-03,   737.500E-03,NA,NA,"",   5.11585E-03,            0.,   738.223E-03,   115.846E-06,   3.10337E+03
C:/ALETube/PressureUpdate/LargeStep/DeformErode/JobErode.odb,Step-1,Increment      5: Step Time =,    50.00,"TUBE-1",          9843,  -3.50742E-03,  -3.56342E-03,      750.E-03,NA,NA,"",   5.11609E-03,            0.,   750.719E-03,   116.092E-06,   3.15588E+03
C:/ALETube/PressureUpdate/LargeStep/DeformErode/JobErode.odb,Step-1,Increment      5: Step Time =,    50.00,"TUBE-1",          9902,  -2.92791E-03,  -4.05307E-03,      750.E-03,NA,NA,"",   5.11615E-03,   433.681E-21,   750.719E-03,   116.154E-06,   3.15958E+03
C:/ALETube/PressureUpdate/LargeStep/DeformErode/JobErode.odb,Step-1,Increment      5: Step Time =,    50.00,"TUBE-1",         10066,  -2.92791E-03,  -4.05307E-03,   762.500E-03,NA,NA,"",   5.11640E-03,   433.681E-21,   763.215E-03,   116.401E-06,   3.21215E+03
C:/ALETube/PressureUpdate/LargeStep/DeformErode/JobErode.odb,Step-1,Increment      5: Step Time =,    50.00,"TUBE-1",         10007,  -3.50742E-03,  -3.56342E-03,   762.500E-03,NA,NA,"",   5.11634E-03,  -433.681E-21,   763.215E-03,   116.339E-06,   3.20840E+03
C:/ALETube/PressureUpdate/LargeStep/DeformErode/JobErode.odb,Step-1,Increment      5: Step Time =,    50.00,"TUBE-1",         10230,  -2.92791E-03,  -4.05307E-03,   775.000E-03,NA,NA,"",   5.11665E-03,            0.,   775.711E-03,   116.647E-06,   3.26473E+03
C:/ALETube/PressureUpdate/LargeStep/DeformErode/JobErode.odb,Step-1,Increment      5: Step Time =,    50.00,"TUBE-1",         10171,  -3.50742E-03,  -3.56342E-03,   775.000E-03,NA,NA,"",   5.11659E-03,            0.,   775.711E-03,   116.585E-06,   3.26090E+03
C:/ALETube/PressureUpdate/LargeStep/DeformErode/JobErode.odb,Step-1,Increment      5: Step Time =,    50.00,"TUBE-1",         10394,  -2.92791E-03,  -4.05307E-03,   787.500E-03,NA,NA,"",   5.11689E-03,   433.681E-21,   788.207E-03,   116.894E-06,   3.31729E+03
C:/ALETube/PressureUpdate/LargeStep/DeformErode/JobErode.odb,Step-1,Increment      5: Step Time =,    50.00,"TUBE-1",         10335,  -3.50742E-03,  -3.56342E-03,   787.500E-03,NA,NA,"",   5.11683E-03,   433.681E-21,   788.207E-03,   116.832E-06,   3.31341E+03
C:/ALETube/PressureUpdate/LargeStep/DeformErode/JobErode.odb,Step-1,Increment      5: Step Time =,    50.00,"TUBE-1",         10558,  -2.92791E-03,  -4.05307E-03,   800.000E-03,NA,NA,"",   5.11714E-03,   433.681E-21,   800.703E-03,   117.141E-06,   3.36986E+03
C:/ALETube/PressureUpdate/LargeStep/DeformErode/JobErode.odb,Step-1,Increment      5: Step Time =,    50.00,"TUBE-1",         10499,  -3.50742E-03,  -3.56342E-03,   800.000E-03,NA,NA,"",   5.11708E-03,            0.,   800.703E-03,   117.078E-06,   3.36591E+03
C:/ALETube/PressureUpdate/LargeStep/DeformErode/JobErode.odb,Step-1,Increment      5: Step Time =,    50.00,"TUBE-1",         10663,  -3.50742E-03,  -3.56342E-03,     812.5E-03,NA,NA,"",   5.11732E-03,   165.935E-12,   813.199E-03,   117.325E-06,   3.41841E+03
C:/ALETube/PressureUpdate/LargeStep/DeformErode/JobErode.odb,Step-1,Increment      5: Step Time =,    50.00,"TUBE-1",         10722,  -2.92791E-03,  -4.05307E-03,     812.5E-03,NA,NA,"",   5.11739E-03,   433.681E-21,   813.199E-03,   117.387E-06,   3.42242E+03
C:/ALETube/PressureUpdate/LargeStep/DeformErode/JobErode.odb,Step-1,Increment      5: Step Time =,    50.00,"TUBE-1",         10886,  -2.92791E-03,  -4.05307E-03,   825.000E-03,NA,NA,"",   5.11763E-03,  -433.681E-21,   825.694E-03,   117.634E-06,   3.47497E+03
C:/ALETube/PressureUpdate/LargeStep/DeformErode/JobErode.odb,Step-1,Increment      5: Step Time =,    50.00,"TUBE-1",         10827,  -3.50742E-03,  -3.56342E-03,   825.000E-03,NA,NA,"",   5.11757E-03,  -433.681E-21,   825.694E-03,   117.571E-06,   3.47091E+03
C:/ALETube/PressureUpdate/LargeStep/DeformErode/JobErode.odb,Step-1,Increment      5: Step Time =,    50.00,"TUBE-1",         11050,  -2.92791E-03,  -4.05307E-03,   837.500E-03,NA,NA,"",   5.11788E-03,            0.,   838.190E-03,   117.881E-06,   3.52753E+03
C:/ALETube/PressureUpdate/LargeStep/DeformErode/JobErode.odb,Step-1,Increment      5: Step Time =,    50.00,"TUBE-1",         10991,  -3.50742E-03,  -3.56342E-03,   837.500E-03,NA,NA,"",   5.11782E-03,  -433.681E-21,   838.190E-03,   117.817E-06,   3.52340E+03
C:/ALETube/PressureUpdate/LargeStep/DeformErode/JobErode.odb,Step-1,Increment      5: Step Time =,    50.00,"TUBE-1",         11214,  -2.92791E-03,  -4.05307E-03,   850.000E-03,NA,NA,"",   5.11813E-03,            0.,   850.686E-03,   118.127E-06,   3.58008E+03
C:/ALETube/PressureUpdate/LargeStep/DeformErode/JobErode.odb,Step-1,Increment      5: Step Time =,    50.00,"TUBE-1",         11155,  -3.50742E-03,  -3.56342E-03,   850.000E-03,NA,NA,"",   5.11806E-03,            0.,   850.686E-03,   118.064E-06,   3.57589E+03
C:/ALETube/PressureUpdate/LargeStep/DeformErode/JobErode.odb,Step-1,Increment      5: Step Time =,    50.00,"TUBE-1",         11378,  -2.92791E-03,  -4.05307E-03,   862.500E-03,NA,NA,"",   5.11837E-03,   433.681E-21,   863.181E-03,   118.374E-06,   3.63263E+03
C:/ALETube/PressureUpdate/LargeStep/DeformErode/JobErode.odb,Step-1,Increment      5: Step Time =,    50.00,"TUBE-1",         11319,  -3.50742E-03,  -3.56342E-03,   862.500E-03,NA,NA,"",   5.11831E-03,            0.,   863.181E-03,   118.310E-06,   3.62838E+03
C:/ALETube/PressureUpdate/LargeStep/DeformErode/JobErode.odb,Step-1,Increment      5: Step Time =,    50.00,"TUBE-1",         11483,  -3.50742E-03,  -3.56342E-03,      875.E-03,NA,NA,"",   5.11856E-03,            0.,   875.676E-03,   118.557E-06,   3.68086E+03
C:/ALETube/PressureUpdate/LargeStep/DeformErode/JobErode.odb,Step-1,Increment      5: Step Time =,    50.00,"TUBE-1",         11542,  -2.92791E-03,  -4.05307E-03,      875.E-03,NA,NA,"",   5.11862E-03,  -433.681E-21,   875.676E-03,   118.621E-06,   3.68518E+03
C:/ALETube/PressureUpdate/LargeStep/DeformErode/JobErode.odb,Step-1,Increment      5: Step Time =,    50.00,"TUBE-1",         11706,  -2.92791E-03,  -4.05307E-03,   887.500E-03,NA,NA,"",   5.11887E-03,   433.681E-21,   888.172E-03,   118.867E-06,   3.73772E+03
C:/ALETube/PressureUpdate/LargeStep/DeformErode/JobErode.odb,Step-1,Increment      5: Step Time =,    50.00,"TUBE-1",         11647,  -3.50742E-03,  -3.56342E-03,   887.500E-03,NA,NA,"",   5.11880E-03,   433.681E-21,   888.172E-03,   118.803E-06,   3.73335E+03
C:/ALETube/PressureUpdate/LargeStep/DeformErode/JobErode.odb,Step-1,Increment      5: Step Time =,    50.00,"TUBE-1",         11870,  -2.92791E-03,  -4.05307E-03,   900.000E-03,NA,NA,"",   5.11911E-03,            0.,   900.667E-03,   119.114E-06,   3.79026E+03
C:/ALETube/PressureUpdate/LargeStep/DeformErode/JobErode.odb,Step-1,Increment      5: Step Time =,    50.00,"TUBE-1",         11811,  -3.50742E-03,  -3.56342E-03,   900.000E-03,NA,NA,"",   5.11905E-03,            0.,   900.667E-03,   119.050E-06,   3.78583E+03
C:/ALETube/PressureUpdate/LargeStep/DeformErode/JobErode.odb,Step-1,Increment      5: Step Time =,    50.00,"TUBE-1",         12034,  -2.92791E-03,  -4.05307E-03,   912.500E-03,NA,NA,"",   5.11936E-03,            0.,   913.162E-03,   119.361E-06,   3.84280E+03
C:/ALETube/PressureUpdate/LargeStep/DeformErode/JobErode.odb,Step-1,Increment      5: Step Time =,    50.00,"TUBE-1",         11975,  -3.50742E-03,  -3.56342E-03,   912.500E-03,NA,NA,"",   5.11930E-03,            0.,   913.162E-03,   119.296E-06,   3.83830E+03
C:/ALETube/PressureUpdate/LargeStep/DeformErode/JobErode.odb,Step-1,Increment      5: Step Time =,    50.00,"TUBE-1",         12198,  -2.92791E-03,  -4.05307E-03,   925.000E-03,NA,NA,"",   5.11961E-03,            0.,   925.658E-03,   119.607E-06,   3.89533E+03
C:/ALETube/PressureUpdate/LargeStep/DeformErode/JobErode.odb,Step-1,Increment      5: Step Time =,    50.00,"TUBE-1",         12139,  -3.50742E-03,  -3.56342E-03,   925.000E-03,NA,NA,"",   5.11954E-03,            0.,   925.658E-03,   119.543E-06,   3.89077E+03
C:/ALETube/PressureUpdate/LargeStep/DeformErode/JobErode.odb,Step-1,Increment      5: Step Time =,    50.00,"TUBE-1",         12303,  -3.50742E-03,  -3.56342E-03,     937.5E-03,NA,NA,"",   5.11979E-03,   433.681E-21,   938.153E-03,   119.789E-06,   3.94325E+03
C:/ALETube/PressureUpdate/LargeStep/DeformErode/JobErode.odb,Step-1,Increment      5: Step Time =,    50.00,"TUBE-1",         12362,  -2.92791E-03,  -4.05307E-03,     937.5E-03,NA,NA,"",   5.11985E-03,            0.,   938.153E-03,   119.854E-06,   3.94786E+03
C:/ALETube/PressureUpdate/LargeStep/DeformErode/JobErode.odb,Step-1,Increment      5: Step Time =,    50.00,"TUBE-1",         12526,  -2.92791E-03,  -4.05307E-03,   950.000E-03,NA,NA,"",   5.12010E-03,            0.,   950.648E-03,   120.101E-06,   4.00039E+03
C:/ALETube/PressureUpdate/LargeStep/DeformErode/JobErode.odb,Step-1,Increment      5: Step Time =,    50.00,"TUBE-1",         12467,  -3.50742E-03,  -3.56342E-03,   950.000E-03,NA,NA,"",   5.12004E-03,   433.681E-21,   950.648E-03,   120.036E-06,   3.99571E+03
C:/ALETube/PressureUpdate/LargeStep/DeformErode/JobErode.odb,Step-1,Increment      5: Step Time =,    50.00,"TUBE-1",         12690,  -2.92791E-03,  -4.05307E-03,   962.500E-03,NA,NA,"",   5.12035E-03,  -433.681E-21,   963.143E-03,   120.347E-06,   4.05292E+03
C:/ALETube/PressureUpdate/LargeStep/DeformErode/JobErode.odb,Step-1,Increment      5: Step Time =,    50.00,"TUBE-1",         12631,  -3.50742E-03,  -3.56342E-03,   962.500E-03,NA,NA,"",   5.12028E-03,            0.,   963.143E-03,   120.282E-06,   4.04818E+03
C:/ALETube/PressureUpdate/LargeStep/DeformErode/JobErode.odb,Step-1,Increment      5: Step Time =,    50.00,"TUBE-1",         12854,  -2.92791E-03,  -4.05307E-03,   975.000E-03,NA,NA,"",   5.12059E-03,            0.,   975.638E-03,   120.594E-06,   4.10544E+03
C:/ALETube/PressureUpdate/LargeStep/DeformErode/JobErode.odb,Step-1,Increment      5: Step Time =,    50.00,"TUBE-1",         12795,  -3.50742E-03,  -3.56342E-03,   975.000E-03,NA,NA,"",   5.12053E-03,            0.,   975.638E-03,   120.529E-06,   4.10064E+03
C:/ALETube/PressureUpdate/LargeStep/DeformErode/JobErode.odb,Step-1,Increment      5: Step Time =,    50.00,"TUBE-1",         13018,  -2.92791E-03,  -4.05307E-03,   987.500E-03,NA,NA,"",   5.12084E-03,  -433.681E-21,   988.132E-03,   120.840E-06,   4.15796E+03
C:/ALETube/PressureUpdate/LargeStep/DeformErode/JobErode.odb,Step-1,Increment      5: Step Time =,    50.00,"TUBE-1",         12959,  -3.50742E-03,  -3.56342E-03,   987.500E-03,NA,NA,"",   5.12078E-03,            0.,   988.132E-03,   120.775E-06,   4.15310E+03
C:/ALETube/PressureUpdate/LargeStep/DeformErode/JobErode.odb,Step-1,Increment      5: Step Time =,    50.00,"TUBE-1",         13123,  -3.50742E-03,  -3.56342E-03,            1.,NA,NA,"",   5.12102E-03,            0.,       1.00063,   121.022E-06,   4.20555E+03
C:/ALETube/PressureUpdate/LargeStep/DeformErode/JobErode.odb,Step-1,Increment      5: Step Time =,    50.00,"TUBE-1",         13182,  -2.92791E-03,  -4.05307E-03,            1.,NA,NA,"",   5.12109E-03,            0.,       1.00063,   121.087E-06,   4.21048E+03
C:/ALETube/PressureUpdate/LargeStep/DeformErode/JobErode.odb,Step-1,Increment      5: Step Time =,    50.00,"TUBE-1",         13346,  -2.92791E-03,  -4.05307E-03,       1.01250,NA,NA,"",   5.12133E-03,            0.,       1.01312,   121.334E-06,   4.26299E+03
C:/ALETube/PressureUpdate/LargeStep/DeformErode/JobErode.odb,Step-1,Increment      5: Step Time =,    50.00,"TUBE-1",         13287,  -3.50742E-03,  -3.56342E-03,       1.01250,NA,NA,"",   5.12127E-03,            0.,       1.01312,   121.268E-06,   4.25800E+03
C:/ALETube/PressureUpdate/LargeStep/DeformErode/JobErode.odb,Step-1,Increment      5: Step Time =,    50.00,"TUBE-1",         13510,  -2.92791E-03,  -4.05307E-03,       1.02500,NA,NA,"",   5.12158E-03,  -433.681E-21,       1.02562,   121.580E-06,   4.31550E+03
C:/ALETube/PressureUpdate/LargeStep/DeformErode/JobErode.odb,Step-1,Increment      5: Step Time =,    50.00,"TUBE-1",         13451,  -3.50742E-03,  -3.56342E-03,       1.02500,NA,NA,"",   5.12151E-03,            0.,       1.02562,   121.515E-06,   4.31045E+03
C:/ALETube/PressureUpdate/LargeStep/DeformErode/JobErode.odb,Step-1,Increment      5: Step Time =,    50.00,"TUBE-1",         13615,  -3.50742E-03,  -3.56342E-03,       1.03750,NA,NA,"",   5.12176E-03,            0.,       1.03811,   121.761E-06,   4.36290E+03
C:/ALETube/PressureUpdate/LargeStep/DeformErode/JobErode.odb,Step-1,Increment      5: Step Time =,    50.00,"TUBE-1",         13674,  -2.92791E-03,  -4.05307E-03,       1.03750,NA,NA,"",   5.12183E-03,            0.,       1.03811,   121.827E-06,   4.36801E+03
C:/ALETube/PressureUpdate/LargeStep/DeformErode/JobErode.odb,Step-1,Increment      5: Step Time =,    50.00,"TUBE-1",         13838,  -2.92791E-03,  -4.05307E-03,       1.05000,NA,NA,"",   5.12207E-03,            0.,       1.05061,   122.074E-06,   4.42051E+03
C:/ALETube/PressureUpdate/LargeStep/DeformErode/JobErode.odb,Step-1,Increment      5: Step Time =,    50.00,"TUBE-1",         13779,  -3.50742E-03,  -3.56342E-03,       1.05000,NA,NA,"",   5.12201E-03,            0.,       1.05061,   122.008E-06,   4.41534E+03
C:/ALETube/PressureUpdate/LargeStep/DeformErode/JobErode.odb,Step-1,Increment      5: Step Time =,    50.00,"TUBE-1",         14002,  -2.92791E-03,  -4.05307E-03,        1.0625,NA,NA,"",   5.12232E-03,            0.,       1.06310,   122.320E-06,   4.47302E+03
C:/ALETube/PressureUpdate/LargeStep/DeformErode/JobErode.odb,Step-1,Increment      5: Step Time =,    50.00,"TUBE-1",         13943,  -3.50742E-03,  -3.56342E-03,        1.0625,NA,NA,"",   5.12225E-03,            0.,       1.06310,   122.254E-06,   4.46779E+03
C:/ALETube/PressureUpdate/LargeStep/DeformErode/JobErode.odb,Step-1,Increment      5: Step Time =,    50.00,"TUBE-1",         14107,  -3.50742E-03,  -3.56342E-03,       1.07500,NA,NA,"",   5.12250E-03,            0.,       1.07559,   122.501E-06,   4.52022E+03
C:/ALETube/PressureUpdate/LargeStep/DeformErode/JobErode.odb,Step-1,Increment      5: Step Time =,    50.00,"TUBE-1",         14166,  -2.92791E-03,  -4.05307E-03,       1.07500,NA,NA,"",   5.12257E-03,            0.,       1.07559,   122.567E-06,   4.52551E+03
C:/ALETube/PressureUpdate/LargeStep/DeformErode/JobErode.odb,Step-1,Increment      5: Step Time =,    50.00,"TUBE-1",         14330,  -2.92791E-03,  -4.05307E-03,       1.08750,NA,NA,"",   5.12281E-03,            0.,       1.08809,   122.814E-06,   4.57801E+03
C:/ALETube/PressureUpdate/LargeStep/DeformErode/JobErode.odb,Step-1,Increment      5: Step Time =,    50.00,"TUBE-1",         14271,  -3.50742E-03,  -3.56342E-03,       1.08750,NA,NA,"",   5.12275E-03,  -433.681E-21,       1.08809,   122.747E-06,   4.57266E+03
C:/ALETube/PressureUpdate/LargeStep/DeformErode/JobErode.odb,Step-1,Increment      5: Step Time =,    50.00,"TUBE-1",         14494,  -2.92791E-03,  -4.05307E-03,       1.10000,NA,NA,"",   5.12306E-03,   433.681E-21,       1.10058,   123.060E-06,   4.63050E+03
C:/ALETube/PressureUpdate/LargeStep/DeformErode/JobErode.odb,Step-1,Increment      5: Step Time =,    50.00,"TUBE-1",         14435,  -3.50742E-03,  -3.56342E-03,       1.10000,NA,NA,"",   5.12299E-03,  -433.681E-21,       1.10058,   122.994E-06,   4.62509E+03
C:/ALETube/PressureUpdate/LargeStep/DeformErode/JobErode.odb,Step-1,Increment      5: Step Time =,    50.00,"TUBE-1",         14658,  -2.92791E-03,  -4.05307E-03,       1.11250,NA,NA,"",   5.12331E-03,            0.,       1.11308,   123.307E-06,   4.68299E+03
C:/ALETube/PressureUpdate/LargeStep/DeformErode/JobErode.odb,Step-1,Increment      5: Step Time =,    50.00,"TUBE-1",         14599,  -3.50742E-03,  -3.56342E-03,       1.11250,NA,NA,"",   5.12324E-03,            0.,       1.11308,   123.240E-06,   4.67752E+03
C:/ALETube/PressureUpdate/LargeStep/DeformErode/JobErode.odb,Step-1,Increment      5: Step Time =,    50.00,"TUBE-1",         14822,  -2.92791E-03,  -4.05307E-03,         1.125,NA,NA,"",   5.12355E-03,  -433.681E-21,       1.12557,   123.554E-06,   4.73548E+03
C:/ALETube/PressureUpdate/LargeStep/DeformErode/JobErode.odb,Step-1,Increment      5: Step Time =,    50.00,"TUBE-1",         14763,  -3.50742E-03,  -3.56342E-03,         1.125,NA,NA,"",   5.12349E-03,   433.681E-21,       1.12557,   123.486E-06,   4.72995E+03
C:/ALETube/PressureUpdate/LargeStep/DeformErode/JobErode.odb,Step-1,Increment      5: Step Time =,    50.00,"TUBE-1",         14927,  -3.50742E-03,  -3.56342E-03,       1.13750,NA,NA,"",   5.12373E-03,            0.,       1.13807,   123.733E-06,   4.78237E+03
C:/ALETube/PressureUpdate/LargeStep/DeformErode/JobErode.odb,Step-1,Increment      5: Step Time =,    50.00,"TUBE-1",         14986,  -2.92791E-03,  -4.05307E-03,       1.13750,NA,NA,"",   5.12380E-03,            0.,       1.13807,   123.800E-06,   4.78797E+03
C:/ALETube/PressureUpdate/LargeStep/DeformErode/JobErode.odb,Step-1,Increment      5: Step Time =,    50.00,"TUBE-1",         15150,  -2.92791E-03,  -4.05307E-03,       1.15000,NA,NA,"",   5.12405E-03,  -433.681E-21,       1.15056,   124.047E-06,   4.84045E+03
C:/ALETube/PressureUpdate/LargeStep/DeformErode/JobErode.odb,Step-1,Increment      5: Step Time =,    50.00,"TUBE-1",         15091,  -3.50742E-03,  -3.56342E-03,       1.15000,NA,NA,"",   5.12398E-03,   433.681E-21,       1.15056,   123.979E-06,   4.83479E+03
C:/ALETube/PressureUpdate/LargeStep/DeformErode/JobErode.odb,Step-1,Increment      5: Step Time =,    50.00,"TUBE-1",         15314,  -2.92791E-03,  -4.05307E-03,       1.16250,NA,NA,"",   5.12429E-03,  -272.682E-12,       1.16305,   124.293E-06,   4.89293E+03
C:/ALETube/PressureUpdate/LargeStep/DeformErode/JobErode.odb,Step-1,Increment      5: Step Time =,    50.00,"TUBE-1",         15255,  -3.50742E-03,  -3.56342E-03,       1.16250,NA,NA,"",   5.12423E-03,   433.681E-21,       1.16305,   124.226E-06,   4.88721E+03
C:/ALETube/PressureUpdate/LargeStep/DeformErode/JobErode.odb,Step-1,Increment      5: Step Time =,    50.00,"TUBE-1",         15478,  -2.92791E-03,  -4.05307E-03,       1.17500,NA,NA,"",   5.12454E-03,   433.681E-21,       1.17555,   124.540E-06,   4.94540E+03
C:/ALETube/PressureUpdate/LargeStep/DeformErode/JobErode.odb,Step-1,Increment      5: Step Time =,    50.00,"TUBE-1",         15419,  -3.50742E-03,  -3.56342E-03,       1.17500,NA,NA,"",   5.12447E-03,   433.681E-21,       1.17555,   124.472E-06,   4.93962E+03
C:/ALETube/PressureUpdate/LargeStep/DeformErode/JobErode.odb,Step-1,Increment      5: Step Time =,    50.00,"TUBE-1",         15642,  -2.92791E-03,  -4.05307E-03,        1.1875,NA,NA,"",   5.12479E-03,  -433.681E-21,       1.18804,   124.787E-06,   4.99787E+03
C:/ALETube/PressureUpdate/LargeStep/DeformErode/JobErode.odb,Step-1,Increment      5: Step Time =,    50.00,"TUBE-1",         15583,  -3.50742E-03,  -3.56342E-03,        1.1875,NA,NA,"",   5.12472E-03,   165.935E-12,       1.18804,   124.719E-06,   4.99203E+03
C:/ALETube/PressureUpdate/LargeStep/DeformErode/JobErode.odb,Step-1,Increment      5: Step Time =,    50.00,"TUBE-1",         15747,  -3.50742E-03,  -3.56342E-03,       1.20000,NA,NA,"",   5.12497E-03,            0.,       1.20054,   124.965E-06,   5.04444E+03
C:/ALETube/PressureUpdate/LargeStep/DeformErode/JobErode.odb,Step-1,Increment      5: Step Time =,    50.00,"TUBE-1",         15806,  -2.92791E-03,  -4.05307E-03,       1.20000,NA,NA,"",   5.12503E-03,   433.681E-21,       1.20054,   125.033E-06,   5.05034E+03
C:/ALETube/PressureUpdate/LargeStep/DeformErode/JobErode.odb,Step-1,Increment      5: Step Time =,    50.00,"TUBE-1",         15970,  -2.92791E-03,  -4.05307E-03,       1.21250,NA,NA,"",   5.12528E-03,  -433.681E-21,       1.21303,   125.280E-06,   5.10281E+03
C:/ALETube/PressureUpdate/LargeStep/DeformErode/JobErode.odb,Step-1,Increment      5: Step Time =,    50.00,"TUBE-1",         15911,  -3.50742E-03,  -3.56342E-03,       1.21250,NA,NA,"",   5.12521E-03,            0.,       1.21303,   125.212E-06,   5.09685E+03
C:/ALETube/PressureUpdate/LargeStep/DeformErode/JobErode.odb,Step-1,Increment      5: Step Time =,    50.00,"TUBE-1",         16134,  -2.92791E-03,  -4.05307E-03,       1.22500,NA,NA,"",   5.12553E-03,            0.,       1.22552,   125.527E-06,   5.15527E+03
C:/ALETube/PressureUpdate/LargeStep/DeformErode/JobErode.odb,Step-1,Increment      5: Step Time =,    50.00,"TUBE-1",         16075,  -3.50742E-03,  -3.56342E-03,       1.22500,NA,NA,"",   5.12546E-03,  -433.681E-21,       1.22552,   125.458E-06,   5.14925E+03
C:/ALETube/PressureUpdate/LargeStep/DeformErode/JobErode.odb,Step-1,Increment      5: Step Time =,    50.00,"TUBE-1",         16298,  -2.92791E-03,  -4.05307E-03,       1.23750,NA,NA,"",   5.12577E-03,  -433.681E-21,       1.23802,   125.773E-06,   5.20774E+03
C:/ALETube/PressureUpdate/LargeStep/DeformErode/JobErode.odb,Step-1,Increment      5: Step Time =,    50.00,"TUBE-1",         16239,  -3.50742E-03,  -3.56342E-03,       1.23750,NA,NA,"",   5.12570E-03,  -433.681E-21,       1.23802,   125.705E-06,   5.20165E+03
C:/ALETube/PressureUpdate/LargeStep/DeformErode/JobErode.odb,Step-1,Increment      5: Step Time =,    50.00,"TUBE-1",         16462,  -2.92791E-03,  -4.05307E-03,          1.25,NA,NA,"",   5.12602E-03,   433.681E-21,       1.25051,   126.020E-06,   5.26019E+03
C:/ALETube/PressureUpdate/LargeStep/DeformErode/JobErode.odb,Step-1,Increment      5: Step Time =,    50.00,"TUBE-1",         16403,  -3.50742E-03,  -3.56342E-03,          1.25,NA,NA,"",   5.12595E-03,            0.,       1.25051,   125.951E-06,   5.25405E+03
C:/ALETube/PressureUpdate/LargeStep/DeformErode/JobErode.odb,Step-1,Increment      5: Step Time =,    50.00,"TUBE-1",         16567,  -3.50742E-03,  -3.56342E-03,       1.26250,NA,NA,"",   5.12620E-03,   433.681E-21,       1.26300,   126.198E-06,   5.30644E+03
C:/ALETube/PressureUpdate/LargeStep/DeformErode/JobErode.odb,Step-1,Increment      5: Step Time =,    50.00,"TUBE-1",         16626,  -2.92791E-03,  -4.05307E-03,       1.26250,NA,NA,"",   5.12627E-03,   433.681E-21,       1.26300,   126.266E-06,   5.31265E+03
C:/ALETube/PressureUpdate/LargeStep/DeformErode/JobErode.odb,Step-1,Increment      5: Step Time =,    50.00,"TUBE-1",         16790,  -2.92791E-03,  -4.05307E-03,       1.27500,NA,NA,"",   5.12651E-03,            0.,       1.27550,   126.513E-06,   5.36510E+03
C:/ALETube/PressureUpdate/LargeStep/DeformErode/JobErode.odb,Step-1,Increment      5: Step Time =,    50.00,"TUBE-1",         16731,  -3.50742E-03,  -3.56342E-03,       1.27500,NA,NA,"",   5.12644E-03,  -433.681E-21,       1.27550,   126.444E-06,   5.35883E+03
C:/ALETube/PressureUpdate/LargeStep/DeformErode/JobErode.odb,Step-1,Increment      5: Step Time =,    50.00,"TUBE-1",         16954,  -2.92791E-03,  -4.05307E-03,       1.28750,NA,NA,"",   5.12676E-03,            0.,       1.28799,   126.760E-06,   5.41755E+03
C:/ALETube/PressureUpdate/LargeStep/DeformErode/JobErode.odb,Step-1,Increment      5: Step Time =,    50.00,"TUBE-1",         16895,  -3.50742E-03,  -3.56342E-03,       1.28750,NA,NA,"",   5.12669E-03,  -433.681E-21,       1.28799,   126.691E-06,   5.41122E+03
C:/ALETube/PressureUpdate/LargeStep/DeformErode/JobErode.odb,Step-1,Increment      5: Step Time =,    50.00,"TUBE-1",         17118,  -2.92791E-03,  -4.05307E-03,       1.30000,NA,NA,"",   5.12701E-03,            0.,       1.30048,   127.006E-06,   5.47000E+03
C:/ALETube/PressureUpdate/LargeStep/DeformErode/JobErode.odb,Step-1,Increment      5: Step Time =,    50.00,"TUBE-1",         17059,  -3.50742E-03,  -3.56342E-03,       1.30000,NA,NA,"",   5.12694E-03,   433.681E-21,       1.30048,   126.937E-06,   5.46360E+03
C:/ALETube/PressureUpdate/LargeStep/DeformErode/JobErode.odb,Step-1,Increment      5: Step Time =,    50.00,"TUBE-1",         17282,  -2.92791E-03,  -4.05307E-03,        1.3125,NA,NA,"",   5.12725E-03,  -433.681E-21,       1.31298,   127.253E-06,   5.52244E+03
C:/ALETube/PressureUpdate/LargeStep/DeformErode/JobErode.odb,Step-1,Increment      5: Step Time =,    50.00,"TUBE-1",         17223,  -3.50742E-03,  -3.56342E-03,        1.3125,NA,NA,"",   5.12718E-03,            0.,       1.31298,   127.183E-06,   5.51599E+03
C:/ALETube/PressureUpdate/LargeStep/DeformErode/JobErode.odb,Step-1,Increment      5: Step Time =,    50.00,"TUBE-1",         17387,  -3.50742E-03,  -3.56342E-03,       1.32500,NA,NA,"",   5.12743E-03,            0.,       1.32547,   127.430E-06,   5.56837E+03
C:/ALETube/PressureUpdate/LargeStep/DeformErode/JobErode.odb,Step-1,Increment      5: Step Time =,    50.00,"TUBE-1",         17446,  -2.92791E-03,  -4.05307E-03,       1.32500,NA,NA,"",   5.12750E-03,  -433.681E-21,       1.32547,   127.500E-06,   5.57488E+03
C:/ALETube/PressureUpdate/LargeStep/DeformErode/JobErode.odb,Step-1,Increment      5: Step Time =,    50.00,"TUBE-1",         17610,  -2.92791E-03,  -4.05307E-03,       1.33750,NA,NA,"",   5.12775E-03,            0.,       1.33796,   127.746E-06,   5.62732E+03
C:/ALETube/PressureUpdate/LargeStep/DeformErode/JobErode.odb,Step-1,Increment      5: Step Time =,    50.00,"TUBE-1",         17551,  -3.50742E-03,  -3.56342E-03,       1.33750,NA,NA,"",   5.12768E-03,            0.,       1.33796,   127.676E-06,   5.62074E+03
C:/ALETube/PressureUpdate/LargeStep/DeformErode/JobErode.odb,Step-1,Increment      5: Step Time =,    50.00,"TUBE-1",         17774,  -2.92791E-03,  -4.05307E-03,       1.35000,NA,NA,"",   5.12799E-03,   433.681E-21,       1.35045,   127.993E-06,   5.67975E+03
C:/ALETube/PressureUpdate/LargeStep/DeformErode/JobErode.odb,Step-1,Increment      5: Step Time =,    50.00,"TUBE-1",         17715,  -3.50742E-03,  -3.56342E-03,       1.35000,NA,NA,"",   5.12792E-03,  -433.681E-21,       1.35045,   127.923E-06,   5.67312E+03
C:/ALETube/PressureUpdate/LargeStep/DeformErode/JobErode.odb,Step-1,Increment      5: Step Time =,    50.00,"TUBE-1",         17938,  -2.92791E-03,  -4.05307E-03,       1.36250,NA,NA,"",   5.12824E-03,   433.681E-21,       1.36295,   128.239E-06,   5.73218E+03
C:/ALETube/PressureUpdate/LargeStep/DeformErode/JobErode.odb,Step-1,Increment      5: Step Time =,    50.00,"TUBE-1",         17879,  -3.50742E-03,  -3.56342E-03,       1.36250,NA,NA,"",   5.12817E-03,   433.681E-21,       1.36295,   128.169E-06,   5.72549E+03
C:/ALETube/PressureUpdate/LargeStep/DeformErode/JobErode.odb,Step-1,Increment      5: Step Time =,    50.00,"TUBE-1",         18102,  -2.92791E-03,  -4.05307E-03,         1.375,NA,NA,"",   5.12849E-03,            0.,       1.37544,   128.486E-06,   5.78461E+03
C:/ALETube/PressureUpdate/LargeStep/DeformErode/JobErode.odb,Step-1,Increment      5: Step Time =,    50.00,"TUBE-1",         18043,  -3.50742E-03,  -3.56342E-03,         1.375,NA,NA,"",   5.12842E-03,            0.,       1.37544,   128.416E-06,   5.77786E+03
C:/ALETube/PressureUpdate/LargeStep/DeformErode/JobErode.odb,Step-1,Increment      5: Step Time =,    50.00,"TUBE-1",         18207,  -3.50742E-03,  -3.56342E-03,       1.38750,NA,NA,"",   5.12866E-03,            0.,       1.38793,   128.662E-06,   5.83022E+03
C:/ALETube/PressureUpdate/LargeStep/DeformErode/JobErode.odb,Step-1,Increment      5: Step Time =,    50.00,"TUBE-1",         18266,  -2.92791E-03,  -4.05307E-03,       1.38750,NA,NA,"",   5.12873E-03,            0.,       1.38793,   128.733E-06,   5.83704E+03
C:/ALETube/PressureUpdate/LargeStep/DeformErode/JobErode.odb,Step-1,Increment      5: Step Time =,    50.00,"TUBE-1",         18430,  -2.92791E-03,  -4.05307E-03,       1.40000,NA,NA,"",   5.12898E-03,            0.,       1.40043,   128.979E-06,   5.88946E+03
C:/ALETube/PressureUpdate/LargeStep/DeformErode/JobErode.odb,Step-1,Increment      5: Step Time =,    50.00,"TUBE-1",         18371,  -3.50742E-03,  -3.56342E-03,       1.40000,NA,NA,"",   5.12891E-03,            0.,       1.40043,   128.909E-06,   5.88258E+03
C:/ALETube/PressureUpdate/LargeStep/DeformErode/JobErode.odb,Step-1,Increment      5: Step Time =,    50.00,"TUBE-1",         18594,  -2.92791E-03,  -4.05307E-03,       1.41250,NA,NA,"",   5.12923E-03,            0.,       1.41292,   129.226E-06,   5.94188E+03
C:/ALETube/PressureUpdate/LargeStep/DeformErode/JobErode.odb,Step-1,Increment      5: Step Time =,    50.00,"TUBE-1",         18535,  -3.50742E-03,  -3.56342E-03,       1.41250,NA,NA,"",   5.12915E-03,            0.,       1.41292,   129.155E-06,   5.93494E+03
C:/ALETube/PressureUpdate/LargeStep/DeformErode/JobErode.odb,Step-1,Increment      5: Step Time =,    50.00,"TUBE-1",         18758,  -2.92791E-03,  -4.05307E-03,       1.42500,NA,NA,"",   5.12947E-03,            0.,       1.42541,   129.473E-06,   5.99430E+03
C:/ALETube/PressureUpdate/LargeStep/DeformErode/JobErode.odb,Step-1,Increment      5: Step Time =,    50.00,"TUBE-1",         18699,  -3.50742E-03,  -3.56342E-03,       1.42500,NA,NA,"",   5.12940E-03,            0.,       1.42541,   129.402E-06,   5.98730E+03
C:/ALETube/PressureUpdate/LargeStep/DeformErode/JobErode.odb,Step-1,Increment      5: Step Time =,    50.00,"TUBE-1",         18922,  -2.92791E-03,  -4.05307E-03,        1.4375,NA,NA,"",   5.12972E-03,            0.,       1.43790,   129.719E-06,   6.04671E+03
C:/ALETube/PressureUpdate/LargeStep/DeformErode/JobErode.odb,Step-1,Increment      5: Step Time =,    50.00,"TUBE-1",         18863,  -3.50742E-03,  -3.56342E-03,        1.4375,NA,NA,"",   5.12965E-03,            0.,       1.43790,   129.648E-06,   6.03965E+03
C:/ALETube/PressureUpdate/LargeStep/DeformErode/JobErode.odb,Step-1,Increment      5: Step Time =,    50.00,"TUBE-1",         19027,  -3.50742E-03,  -3.56342E-03,       1.45000,NA,NA,"",   5.12989E-03,            0.,       1.45040,   129.894E-06,   6.09200E+03
C:/ALETube/PressureUpdate/LargeStep/DeformErode/JobErode.odb,Step-1,Increment      5: Step Time =,    50.00,"TUBE-1",         19086,  -2.92791E-03,  -4.05307E-03,       1.45000,NA,NA,"",   5.12997E-03,  -433.681E-21,       1.45040,   129.966E-06,   6.09912E+03
C:/ALETube/PressureUpdate/LargeStep/DeformErode/JobErode.odb,Step-1,Increment      5: Step Time =,    50.00,"TUBE-1",         19250,  -2.92791E-03,  -4.05307E-03,       1.46250,NA,NA,"",   5.13021E-03,            0.,       1.46289,   130.212E-06,   6.15153E+03
C:/ALETube/PressureUpdate/LargeStep/DeformErode/JobErode.odb,Step-1,Increment      5: Step Time =,    50.00,"TUBE-1",         19191,  -3.50742E-03,  -3.56342E-03,       1.46250,NA,NA,"",   5.13014E-03,   433.681E-21,       1.46289,   130.141E-06,   6.14435E+03
C:/ALETube/PressureUpdate/LargeStep/DeformErode/JobErode.odb,Step-1,Increment      5: Step Time =,    50.00,"TUBE-1",         19414,  -2.92791E-03,  -4.05307E-03,       1.47500,NA,NA,"",   5.13046E-03,            0.,       1.47538,   130.459E-06,   6.20394E+03
C:/ALETube/PressureUpdate/LargeStep/DeformErode/JobErode.odb,Step-1,Increment      5: Step Time =,    50.00,"TUBE-1",         19355,  -3.50742E-03,  -3.56342E-03,       1.47500,NA,NA,"",   5.13039E-03,            0.,       1.47538,   130.387E-06,   6.19669E+03
C:/ALETube/PressureUpdate/LargeStep/DeformErode/JobErode.odb,Step-1,Increment      5: Step Time =,    50.00,"TUBE-1",         19578,  -2.92791E-03,  -4.05307E-03,       1.48750,NA,NA,"",   5.13071E-03,            0.,       1.48787,   130.706E-06,   6.25634E+03
C:/ALETube/PressureUpdate/LargeStep/DeformErode/JobErode.odb,Step-1,Increment      5: Step Time =,    50.00,"TUBE-1",         19519,  -3.50742E-03,  -3.56342E-03,       1.48750,NA,NA,"",   5.13063E-03,            0.,       1.48787,   130.634E-06,   6.24903E+03
C:/ALETube/PressureUpdate/LargeStep/DeformErode/JobErode.odb,Step-1,Increment      5: Step Time =,    50.00,"TUBE-1",         19742,  -2.92791E-03,  -4.05307E-03,           1.5,NA,NA,"",   5.13095E-03,  -433.681E-21,       1.50037,   130.952E-06,   6.30874E+03
C:/ALETube/PressureUpdate/LargeStep/DeformErode/JobErode.odb,Step-1,Increment      5: Step Time =,    50.00,"TUBE-1",         19683,  -3.50742E-03,  -3.56342E-03,           1.5,NA,NA,"",   5.13088E-03,            0.,       1.50037,   130.880E-06,   6.30137E+03
C:/ALETube/PressureUpdate/LargeStep/DeformErode/JobErode.odb,Step-1,Increment      5: Step Time =,    50.00,"TUBE-1",         19847,  -3.50742E-03,  -3.56342E-03,       1.51250,NA,NA,"",   5.13113E-03,            0.,       1.51286,   131.127E-06,   6.35371E+03
C:/ALETube/PressureUpdate/LargeStep/DeformErode/JobErode.odb,Step-1,Increment      5: Step Time =,    50.00,"TUBE-1",         19906,  -2.92791E-03,  -4.05307E-03,       1.51250,NA,NA,"",   5.13120E-03,  -433.681E-21,       1.51286,   131.199E-06,   6.36113E+03
C:/ALETube/PressureUpdate/LargeStep/DeformErode/JobErode.odb,Step-1,Increment      5: Step Time =,    50.00,"TUBE-1",         20070,  -2.92791E-03,  -4.05307E-03,       1.52500,NA,NA,"",   5.13145E-03,            0.,       1.52535,   131.445E-06,   6.41353E+03
C:/ALETube/PressureUpdate/LargeStep/DeformErode/JobErode.odb,Step-1,Increment      5: Step Time =,    50.00,"TUBE-1",         20011,  -3.50742E-03,  -3.56342E-03,       1.52500,NA,NA,"",   5.13137E-03,  -433.681E-21,       1.52535,   131.373E-06,   6.40604E+03
C:/ALETube/PressureUpdate/LargeStep/DeformErode/JobErode.odb,Step-1,Increment      5: Step Time =,    50.00,"TUBE-1",         20234,  -2.92791E-03,  -4.05307E-03,       1.53750,NA,NA,"",   5.13169E-03,            0.,       1.53784,   131.692E-06,   6.46592E+03
C:/ALETube/PressureUpdate/LargeStep/DeformErode/JobErode.odb,Step-1,Increment      5: Step Time =,    50.00,"TUBE-1",         20175,  -3.50742E-03,  -3.56342E-03,       1.53750,NA,NA,"",   5.13162E-03,            0.,       1.53784,   131.620E-06,   6.45837E+03
C:/ALETube/PressureUpdate/LargeStep/DeformErode/JobErode.odb,Step-1,Increment      5: Step Time =,    50.00,"TUBE-1",         20398,  -2.92791E-03,  -4.05307E-03,       1.55000,NA,NA,"",   5.13194E-03,            0.,       1.55033,   131.939E-06,   6.51831E+03
C:/ALETube/PressureUpdate/LargeStep/DeformErode/JobErode.odb,Step-1,Increment      5: Step Time =,    50.00,"TUBE-1",         20339,  -3.50742E-03,  -3.56342E-03,       1.55000,NA,NA,"",   5.13187E-03,            0.,       1.55033,   131.866E-06,   6.51069E+03
C:/ALETube/PressureUpdate/LargeStep/DeformErode/JobErode.odb,Step-1,Increment      5: Step Time =,    50.00,"TUBE-1",         20562,  -2.92791E-03,  -4.05307E-03,        1.5625,NA,NA,"",   5.13219E-03,  -433.681E-21,       1.56283,   132.185E-06,   6.57069E+03
C:/ALETube/PressureUpdate/LargeStep/DeformErode/JobErode.odb,Step-1,Increment      5: Step Time =,    50.00,"TUBE-1",         20503,  -3.50742E-03,  -3.56342E-03,        1.5625,NA,NA,"",   5.13211E-03,            0.,       1.56283,   132.113E-06,   6.56302E+03
C:/ALETube/PressureUpdate/LargeStep/DeformErode/JobErode.odb,Step-1,Increment      5: Step Time =,    50.00,"TUBE-1",         20667,  -3.50742E-03,  -3.56342E-03,       1.57500,NA,NA,"",   5.13236E-03,  -433.681E-21,       1.57532,   132.359E-06,   6.61534E+03
C:/ALETube/PressureUpdate/LargeStep/DeformErode/JobErode.odb,Step-1,Increment      5: Step Time =,    50.00,"TUBE-1",         20726,  -2.92791E-03,  -4.05307E-03,       1.57500,NA,NA,"",   5.13243E-03,            0.,       1.57532,   132.432E-06,   6.62307E+03
C:/ALETube/PressureUpdate/LargeStep/DeformErode/JobErode.odb,Step-1,Increment      5: Step Time =,    50.00,"TUBE-1",         20890,  -2.92791E-03,  -4.05307E-03,       1.58750,NA,NA,"",   5.13268E-03,            0.,       1.58781,   132.679E-06,   6.67545E+03
C:/ALETube/PressureUpdate/LargeStep/DeformErode/JobErode.odb,Step-1,Increment      5: Step Time =,    50.00,"TUBE-1",         20831,  -3.50742E-03,  -3.56342E-03,       1.58750,NA,NA,"",   5.13261E-03,            0.,       1.58781,   132.605E-06,   6.66766E+03
C:/ALETube/PressureUpdate/LargeStep/DeformErode/JobErode.odb,Step-1,Increment      5: Step Time =,    50.00,"TUBE-1",         21054,  -2.92791E-03,  -4.05307E-03,       1.60000,NA,NA,"",   5.13292E-03,            0.,       1.60030,   132.925E-06,   6.72783E+03
C:/ALETube/PressureUpdate/LargeStep/DeformErode/JobErode.odb,Step-1,Increment      5: Step Time =,    50.00,"TUBE-1",         20995,  -3.50742E-03,  -3.56342E-03,       1.60000,NA,NA,"",   5.13285E-03,            0.,       1.60030,   132.852E-06,   6.71997E+03
C:/ALETube/PressureUpdate/LargeStep/DeformErode/JobErode.odb,Step-1,Increment      5: Step Time =,    50.00,"TUBE-1",         21218,  -2.92791E-03,  -4.05307E-03,       1.61250,NA,NA,"",   5.13317E-03,            0.,       1.61279,   133.172E-06,   6.78020E+03
C:/ALETube/PressureUpdate/LargeStep/DeformErode/JobErode.odb,Step-1,Increment      5: Step Time =,    50.00,"TUBE-1",         21159,  -3.50742E-03,  -3.56342E-03,       1.61250,NA,NA,"",   5.13310E-03,            0.,       1.61279,   133.098E-06,   6.77228E+03
C:/ALETube/PressureUpdate/LargeStep/DeformErode/JobErode.odb,Step-1,Increment      5: Step Time =,    50.00,"TUBE-1",         21382,  -2.92791E-03,  -4.05307E-03,         1.625,NA,NA,"",   5.13342E-03,            0.,       1.62528,   133.418E-06,   6.83257E+03
C:/ALETube/PressureUpdate/LargeStep/DeformErode/JobErode.odb,Step-1,Increment      5: Step Time =,    50.00,"TUBE-1",         21323,  -3.50742E-03,  -3.56342E-03,         1.625,NA,NA,"",   5.13334E-03,            0.,       1.62528,   133.345E-06,   6.82460E+03
C:/ALETube/PressureUpdate/LargeStep/DeformErode/JobErode.odb,Step-1,Increment      5: Step Time =,    50.00,"TUBE-1",         21487,  -3.50742E-03,  -3.56342E-03,       1.63750,NA,NA,"",   5.13359E-03,            0.,       1.63778,   133.591E-06,   6.87690E+03
C:/ALETube/PressureUpdate/LargeStep/DeformErode/JobErode.odb,Step-1,Increment      5: Step Time =,    50.00,"TUBE-1",         21546,  -2.92791E-03,  -4.05307E-03,       1.63750,NA,NA,"",   5.13366E-03,   433.681E-21,       1.63778,   133.665E-06,   6.88494E+03
C:/ALETube/PressureUpdate/LargeStep/DeformErode/JobErode.odb,Step-1,Increment      5: Step Time =,    50.00,"TUBE-1",         21710,  -2.92791E-03,  -4.05307E-03,       1.65000,NA,NA,"",   5.13391E-03,            0.,       1.65027,   133.912E-06,   6.93730E+03
C:/ALETube/PressureUpdate/LargeStep/DeformErode/JobErode.odb,Step-1,Increment      5: Step Time =,    50.00,"TUBE-1",         21651,  -3.50742E-03,  -3.56342E-03,       1.65000,NA,NA,"",   5.13384E-03,            0.,       1.65027,   133.838E-06,   6.92920E+03
C:/ALETube/PressureUpdate/LargeStep/DeformErode/JobErode.odb,Step-1,Increment      5: Step Time =,    50.00,"TUBE-1",         21874,  -2.92791E-03,  -4.05307E-03,       1.66250,NA,NA,"",   5.13416E-03,            0.,       1.66276,   134.158E-06,   6.98966E+03
C:/ALETube/PressureUpdate/LargeStep/DeformErode/JobErode.odb,Step-1,Increment      5: Step Time =,    50.00,"TUBE-1",         21815,  -3.50742E-03,  -3.56342E-03,       1.66250,NA,NA,"",   5.13408E-03,  -433.681E-21,       1.66276,   134.084E-06,   6.98150E+03
C:/ALETube/PressureUpdate/LargeStep/DeformErode/JobErode.odb,Step-1,Increment      5: Step Time =,    50.00,"TUBE-1",         22038,  -2.92791E-03,  -4.05307E-03,       1.67500,NA,NA,"",   5.13440E-03,            0.,       1.67525,   134.405E-06,   7.04202E+03
C:/ALETube/PressureUpdate/LargeStep/DeformErode/JobErode.odb,Step-1,Increment      5: Step Time =,    50.00,"TUBE-1",         21979,  -3.50742E-03,  -3.56342E-03,       1.67500,NA,NA,"",   5.13433E-03,            0.,       1.67525,   134.331E-06,   7.03380E+03
C:/ALETube/PressureUpdate/LargeStep/DeformErode/JobErode.odb,Step-1,Increment      5: Step Time =,    50.00,"TUBE-1",         22202,  -2.92791E-03,  -4.05307E-03,        1.6875,NA,NA,"",   5.13465E-03,  -433.681E-21,       1.68774,   134.651E-06,   7.09438E+03
C:/ALETube/PressureUpdate/LargeStep/DeformErode/JobErode.odb,Step-1,Increment      5: Step Time =,    50.00,"TUBE-1",         22143,  -3.50742E-03,  -3.56342E-03,        1.6875,NA,NA,"",   5.13458E-03,  -433.681E-21,       1.68774,   134.577E-06,   7.08610E+03
C:/ALETube/PressureUpdate/LargeStep/DeformErode/JobErode.odb,Step-1,Increment      5: Step Time =,    50.00,"TUBE-1",         22307,  -3.50742E-03,  -3.56342E-03,       1.70000,NA,NA,"",   5.13482E-03,            0.,       1.70023,   134.823E-06,   7.13838E+03
C:/ALETube/PressureUpdate/LargeStep/DeformErode/JobErode.odb,Step-1,Increment      5: Step Time =,    50.00,"TUBE-1",         22366,  -2.92791E-03,  -4.05307E-03,       1.70000,NA,NA,"",   5.13490E-03,  -433.681E-21,       1.70023,   134.898E-06,   7.14672E+03
C:/ALETube/PressureUpdate/LargeStep/DeformErode/JobErode.odb,Step-1,Increment      5: Step Time =,    50.00,"TUBE-1",         22530,  -2.92791E-03,  -4.05307E-03,       1.71250,NA,NA,"",   5.13514E-03,   433.681E-21,       1.71272,   135.145E-06,   7.19910E+03
C:/ALETube/PressureUpdate/LargeStep/DeformErode/JobErode.odb,Step-1,Increment      5: Step Time =,    50.00,"TUBE-1",         22471,  -3.50742E-03,  -3.56342E-03,       1.71250,NA,NA,"",   5.13507E-03,            0.,       1.71272,   135.070E-06,   7.19070E+03
C:/ALETube/PressureUpdate/LargeStep/DeformErode/JobErode.odb,Step-1,Increment      5: Step Time =,    50.00,"TUBE-1",         22694,  -2.92791E-03,  -4.05307E-03,       1.72500,NA,NA,"",   5.13539E-03,            0.,       1.72521,   135.391E-06,   7.25136E+03
C:/ALETube/PressureUpdate/LargeStep/DeformErode/JobErode.odb,Step-1,Increment      5: Step Time =,    50.00,"TUBE-1",         22635,  -3.50742E-03,  -3.56342E-03,       1.72500,NA,NA,"",   5.13532E-03,            0.,       1.72521,   135.316E-06,   7.24290E+03
C:/ALETube/PressureUpdate/LargeStep/DeformErode/JobErode.odb,Step-1,Increment      5: Step Time =,    50.00,"TUBE-1",         22858,  -2.92791E-03,  -4.05307E-03,       1.73750,NA,NA,"",   5.13564E-03,            0.,       1.73770,   135.638E-06,   7.30382E+03
C:/ALETube/PressureUpdate/LargeStep/DeformErode/JobErode.odb,Step-1,Increment      5: Step Time =,    50.00,"TUBE-1",         22799,  -3.50742E-03,  -3.56342E-03,       1.73750,NA,NA,"",   5.13556E-03,   433.681E-21,       1.73770,   135.562E-06,   7.29529E+03
C:/ALETube/PressureUpdate/LargeStep/DeformErode/JobErode.odb,Step-1,Increment      5: Step Time =,    50.00,"TUBE-1",         23022,  -2.92791E-03,  -4.05307E-03,          1.75,NA,NA,"",   5.13589E-03,  -188.736E-12,       1.75020,   135.887E-06,   7.35651E+03
C:/ALETube/PressureUpdate/LargeStep/DeformErode/JobErode.odb,Step-1,Increment      5: Step Time =,    50.00,"TUBE-1",         22963,  -3.50742E-03,  -3.56342E-03,          1.75,NA,NA,"",   5.13581E-03,            0.,       1.75020,   135.812E-06,   7.34793E+03
C:/ALETube/PressureUpdate/LargeStep/DeformErode/JobErode.odb,Step-1,Increment      5: Step Time =,    50.00,"TUBE-1",         23127,  -3.50742E-03,  -3.56342E-03,       1.76250,NA,NA,"",   5.13605E-03,   433.681E-21,       1.76269,   136.049E-06,   7.39855E+03
C:/ALETube/PressureUpdate/LargeStep/DeformErode/JobErode.odb,Step-1,Increment      5: Step Time =,    50.00,"TUBE-1",         23186,  -2.92791E-03,  -4.05307E-03,       1.76250,NA,NA,"",   5.13612E-03,  -433.681E-21,       1.76269,   136.124E-06,   7.40720E+03
C:/ALETube/PressureUpdate/LargeStep/DeformErode/JobErode.odb,Step-1,Increment      5: Step Time =,    50.00,"TUBE-1",         23350,  -2.92791E-03,  -4.05307E-03,       1.77500,NA,NA,"",   5.13632E-03,            0.,       1.77518,   136.318E-06,   7.44836E+03
C:/ALETube/PressureUpdate/LargeStep/DeformErode/JobErode.odb,Step-1,Increment      5: Step Time =,    50.00,"TUBE-1",         23291,  -3.50742E-03,  -3.56342E-03,       1.77500,NA,NA,"",   5.13624E-03,            0.,       1.77518,   136.242E-06,   7.43968E+03
C:/ALETube/PressureUpdate/LargeStep/DeformErode/JobErode.odb,Step-1,Increment      5: Step Time =,    50.00,"TUBE-1",         23514,  -2.92791E-03,  -4.05307E-03,       1.78750,NA,NA,"",   5.13657E-03,            0.,       1.78767,   136.570E-06,   7.50212E+03
C:/ALETube/PressureUpdate/LargeStep/DeformErode/JobErode.odb,Step-1,Increment      5: Step Time =,    50.00,"TUBE-1",         23455,  -3.50742E-03,  -3.56342E-03,       1.78750,NA,NA,"",   5.13649E-03,            0.,       1.78767,   136.494E-06,   7.49337E+03
C:/ALETube/PressureUpdate/LargeStep/DeformErode/JobErode.odb,Step-1,Increment      5: Step Time =,    50.00,"TUBE-1",         23678,  -2.92791E-03,  -4.05307E-03,       1.80000,NA,NA,"",   5.13682E-03,            0.,       1.80016,   136.819E-06,   7.55437E+03
C:/ALETube/PressureUpdate/LargeStep/DeformErode/JobErode.odb,Step-1,Increment      5: Step Time =,    50.00,"TUBE-1",         23619,  -3.50742E-03,  -3.56342E-03,       1.80000,NA,NA,"",   5.13674E-03,            0.,       1.80016,   136.743E-06,   7.54556E+03
C:/ALETube/PressureUpdate/LargeStep/DeformErode/JobErode.odb,Step-1,Increment      5: Step Time =,    50.00,"TUBE-1",         23842,  -2.92791E-03,  -4.05307E-03,        1.8125,NA,NA,"",   5.13707E-03,  -433.681E-21,       1.81265,   137.065E-06,   7.60678E+03
C:/ALETube/PressureUpdate/LargeStep/DeformErode/JobErode.odb,Step-1,Increment      5: Step Time =,    50.00,"TUBE-1",         23783,  -3.50742E-03,  -3.56342E-03,        1.8125,NA,NA,"",   5.13699E-03,  -433.681E-21,       1.81265,   136.989E-06,   7.59790E+03
C:/ALETube/PressureUpdate/LargeStep/DeformErode/JobErode.odb,Step-1,Increment      5: Step Time =,    50.00,"TUBE-1",         23947,  -3.50742E-03,  -3.56342E-03,       1.82500,NA,NA,"",   5.13724E-03,            0.,       1.82514,   137.236E-06,   7.65007E+03
C:/ALETube/PressureUpdate/LargeStep/DeformErode/JobErode.odb,Step-1,Increment      5: Step Time =,    50.00,"TUBE-1",         24006,  -2.92791E-03,  -4.05307E-03,       1.82500,NA,NA,"",   5.13731E-03,            0.,       1.82514,   137.312E-06,   7.65900E+03
C:/ALETube/PressureUpdate/LargeStep/DeformErode/JobErode.odb,Step-1,Increment      5: Step Time =,    50.00,"TUBE-1",         24170,  -2.92791E-03,  -4.05307E-03,       1.83750,NA,NA,"",   5.13756E-03,            0.,       1.83763,   137.558E-06,   7.71138E+03
C:/ALETube/PressureUpdate/LargeStep/DeformErode/JobErode.odb,Step-1,Increment      5: Step Time =,    50.00,"TUBE-1",         24111,  -3.50742E-03,  -3.56342E-03,       1.83750,NA,NA,"",   5.13748E-03,            0.,       1.83763,   137.482E-06,   7.70238E+03
C:/ALETube/PressureUpdate/LargeStep/DeformErode/JobErode.odb,Step-1,Increment      5: Step Time =,    50.00,"TUBE-1",         24334,  -2.92791E-03,  -4.05307E-03,       1.85000,NA,NA,"",   5.13780E-03,  -433.681E-21,       1.85012,   137.805E-06,   7.76368E+03
C:/ALETube/PressureUpdate/LargeStep/DeformErode/JobErode.odb,Step-1,Increment      5: Step Time =,    50.00,"TUBE-1",         24275,  -3.50742E-03,  -3.56342E-03,       1.85000,NA,NA,"",   5.13773E-03,            0.,       1.85012,   137.729E-06,   7.75462E+03
C:/ALETube/PressureUpdate/LargeStep/DeformErode/JobErode.odb,Step-1,Increment      5: Step Time =,    50.00,"TUBE-1",         24498,  -2.92791E-03,  -4.05307E-03,       1.86250,NA,NA,"",   5.13805E-03,            0.,       1.86261,   138.052E-06,   7.81600E+03
C:/ALETube/PressureUpdate/LargeStep/DeformErode/JobErode.odb,Step-1,Increment      5: Step Time =,    50.00,"TUBE-1",         24439,  -3.50742E-03,  -3.56342E-03,       1.86250,NA,NA,"",   5.13797E-03,            0.,       1.86261,   137.975E-06,   7.80688E+03
C:/ALETube/PressureUpdate/LargeStep/DeformErode/JobErode.odb,Step-1,Increment      5: Step Time =,    50.00,"TUBE-1",         24662,  -2.92791E-03,  -4.05307E-03,         1.875,NA,NA,"",   5.13830E-03,            0.,       1.87510,   138.298E-06,   7.86831E+03
C:/ALETube/PressureUpdate/LargeStep/DeformErode/JobErode.odb,Step-1,Increment      5: Step Time =,    50.00,"TUBE-1",         24603,  -3.50742E-03,  -3.56342E-03,         1.875,NA,NA,"",   5.13822E-03,            0.,       1.87510,   138.221E-06,   7.85914E+03
C:/ALETube/PressureUpdate/LargeStep/DeformErode/JobErode.odb,Step-1,Increment      5: Step Time =,    50.00,"TUBE-1",         24767,  -3.50742E-03,  -3.56342E-03,       1.88750,NA,NA,"",   5.13847E-03,            0.,       1.88759,   138.468E-06,   7.91138E+03
C:/ALETube/PressureUpdate/LargeStep/DeformErode/JobErode.odb,Step-1,Increment      5: Step Time =,    50.00,"TUBE-1",         24826,  -2.92791E-03,  -4.05307E-03,       1.88750,NA,NA,"",   5.13854E-03,            0.,       1.88759,   138.545E-06,   7.92062E+03
C:/ALETube/PressureUpdate/LargeStep/DeformErode/JobErode.odb,Step-1,Increment      5: Step Time =,    50.00,"TUBE-1",         24990,  -2.92791E-03,  -4.05307E-03,       1.90000,NA,NA,"",   5.13879E-03,            0.,       1.90008,   138.791E-06,   7.97293E+03
C:/ALETube/PressureUpdate/LargeStep/DeformErode/JobErode.odb,Step-1,Increment      5: Step Time =,    50.00,"TUBE-1",         24931,  -3.50742E-03,  -3.56342E-03,       1.90000,NA,NA,"",   5.13871E-03,   433.681E-21,       1.90008,   138.714E-06,   7.96363E+03
C:/ALETube/PressureUpdate/LargeStep/DeformErode/JobErode.odb,Step-1,Increment      5: Step Time =,    50.00,"TUBE-1",         25154,  -2.92791E-03,  -4.05307E-03,       1.91250,NA,NA,"",   5.13904E-03,            0.,       1.91257,   139.038E-06,   8.02523E+03
C:/ALETube/PressureUpdate/LargeStep/DeformErode/JobErode.odb,Step-1,Increment      5: Step Time =,    50.00,"TUBE-1",         25095,  -3.50742E-03,  -3.56342E-03,       1.91250,NA,NA,"",   5.13896E-03,            0.,       1.91257,   138.961E-06,   8.01587E+03
C:/ALETube/PressureUpdate/LargeStep/DeformErode/JobErode.odb,Step-1,Increment      5: Step Time =,    50.00,"TUBE-1",         25318,  -2.92791E-03,  -4.05307E-03,       1.92500,NA,NA,"",   5.13928E-03,            0.,       1.92506,   139.285E-06,   8.07756E+03
C:/ALETube/PressureUpdate/LargeStep/DeformErode/JobErode.odb,Step-1,Increment      5: Step Time =,    50.00,"TUBE-1",         25259,  -3.50742E-03,  -3.56342E-03,       1.92500,NA,NA,"",   5.13921E-03,            0.,       1.92506,   139.207E-06,   8.06813E+03
C:/ALETube/PressureUpdate/LargeStep/DeformErode/JobErode.odb,Step-1,Increment      5: Step Time =,    50.00,"TUBE-1",         25482,  -2.92791E-03,  -4.05307E-03,        1.9375,NA,NA,"",   5.13953E-03,            0.,       1.93755,   139.531E-06,   8.12977E+03
C:/ALETube/PressureUpdate/LargeStep/DeformErode/JobErode.odb,Step-1,Increment      5: Step Time =,    50.00,"TUBE-1",         25423,  -3.50742E-03,  -3.56342E-03,        1.9375,NA,NA,"",   5.13945E-03,            0.,       1.93755,   139.453E-06,   8.12030E+03
C:/ALETube/PressureUpdate/LargeStep/DeformErode/JobErode.odb,Step-1,Increment      5: Step Time =,    50.00,"TUBE-1",         25587,  -3.50742E-03,  -3.56342E-03,       1.95000,NA,NA,"",   5.13970E-03,  -433.681E-21,       1.95004,   139.701E-06,   8.17276E+03
C:/ALETube/PressureUpdate/LargeStep/DeformErode/JobErode.odb,Step-1,Increment      5: Step Time =,    50.00,"TUBE-1",         25646,  -2.92791E-03,  -4.05307E-03,       1.95000,NA,NA,"",   5.13978E-03,  -272.682E-12,       1.95004,   139.778E-06,   8.18235E+03
C:/ALETube/PressureUpdate/LargeStep/DeformErode/JobErode.odb,Step-1,Increment      5: Step Time =,    50.00,"TUBE-1",         25810,  -2.92791E-03,  -4.05307E-03,       1.96250,NA,NA,"",   5.14002E-03,            0.,       1.96253,   140.023E-06,   8.23393E+03
C:/ALETube/PressureUpdate/LargeStep/DeformErode/JobErode.odb,Step-1,Increment      5: Step Time =,    50.00,"TUBE-1",         25751,  -3.50742E-03,  -3.56342E-03,       1.96250,NA,NA,"",   5.13995E-03,            0.,       1.96253,   139.946E-06,   8.22445E+03
C:/ALETube/PressureUpdate/LargeStep/DeformErode/JobErode.odb,Step-1,Increment      5: Step Time =,    50.00,"TUBE-1",         25974,  -2.92791E-03,  -4.05307E-03,       1.97500,NA,NA,"",   5.14027E-03,  -433.681E-21,       1.97502,   140.269E-06,   8.28713E+03
C:/ALETube/PressureUpdate/LargeStep/DeformErode/JobErode.odb,Step-1,Increment      5: Step Time =,    50.00,"TUBE-1",         25915,  -3.50742E-03,  -3.56342E-03,       1.97500,NA,NA,"",   5.14019E-03,  -433.681E-21,       1.97502,   140.191E-06,   8.27720E+03
C:/ALETube/PressureUpdate/LargeStep/DeformErode/JobErode.odb,Step-1,Increment      5: Step Time =,    50.00,"TUBE-1",         26138,  -2.92791E-03,  -4.05307E-03,       1.98750,NA,NA,"",   5.14053E-03,  -433.681E-21,       1.98751,   140.530E-06,   8.33923E+03
C:/ALETube/PressureUpdate/LargeStep/DeformErode/JobErode.odb,Step-1,Increment      5: Step Time =,    50.00,"TUBE-1",         26079,  -3.50742E-03,  -3.56342E-03,       1.98750,NA,NA,"",   5.14045E-03,   433.681E-21,       1.98751,   140.454E-06,   8.33112E+03
C:/ALETube/PressureUpdate/LargeStep/DeformErode/JobErode.odb,Step-1,Increment      5: Step Time =,    50.00,"TUBE-1",         26302,  -2.92791E-03,  -4.05307E-03,            2.,NA,NA,"",   5.14057E-03,  -433.681E-21,            2.,   140.569E-06,   8.35465E+03
C:/ALETube/PressureUpdate/LargeStep/DeformErode/JobErode.odb,Step-1,Increment      5: Step Time =,    50.00,"TUBE-1",         26243,  -3.50742E-03,  -3.56342E-03,            2.,NA,NA,"",   5.14054E-03,            0.,            2.,   140.536E-06,   8.36652E+03
C:/ALETube/PressureUpdate/LargeStep/DeformErode/JobErode.odb,Step-1,Increment      6: Step Time =,    60.00,"TUBE-1",            62,  -2.92791E-03,  -4.05307E-03,            0.,NA,NA,"",   5.16884E-03,  -433.681E-21,   1.27038E-03,   168.836E-06,       11.8576
C:/ALETube/PressureUpdate/LargeStep/DeformErode/JobErode.odb,Step-1,Increment      6: Step Time =,    60.00,"TUBE-1",             3,  -3.50742E-03,  -3.56342E-03,            0.,NA,NA,"",   5.16881E-03,            0.,   1.27037E-03,   168.808E-06,       11.7838
C:/ALETube/PressureUpdate/LargeStep/DeformErode/JobErode.odb,Step-1,Increment      6: Step Time =,    60.00,"TUBE-1",           226,  -2.92791E-03,  -4.05307E-03,   12.5000E-03,NA,NA,"",   5.16651E-03,            0.,   13.6072E-03,   166.506E-06,       70.2367
C:/ALETube/PressureUpdate/LargeStep/DeformErode/JobErode.odb,Step-1,Increment      6: Step Time =,    60.00,"TUBE-1",           167,  -3.50742E-03,  -3.56342E-03,   12.5000E-03,NA,NA,"",   5.16644E-03,            0.,   13.6075E-03,   166.442E-06,       70.2207
C:/ALETube/PressureUpdate/LargeStep/DeformErode/JobErode.odb,Step-1,Increment      6: Step Time =,    60.00,"TUBE-1",           331,  -3.50742E-03,  -3.56342E-03,   25.0000E-03,NA,NA,"",   5.16675E-03,            0.,   26.1068E-03,   166.748E-06,       138.697
C:/ALETube/PressureUpdate/LargeStep/DeformErode/JobErode.odb,Step-1,Increment      6: Step Time =,    60.00,"TUBE-1",           390,  -2.92791E-03,  -4.05307E-03,   25.0000E-03,NA,NA,"",   5.16681E-03,            0.,   26.1068E-03,   166.813E-06,       138.809
C:/ALETube/PressureUpdate/LargeStep/DeformErode/JobErode.odb,Step-1,Increment      6: Step Time =,    60.00,"TUBE-1",           554,  -2.92791E-03,  -4.05307E-03,   37.5000E-03,NA,NA,"",   5.16713E-03,  -433.681E-21,   38.6066E-03,   167.126E-06,       206.882
C:/ALETube/PressureUpdate/LargeStep/DeformErode/JobErode.odb,Step-1,Increment      6: Step Time =,    60.00,"TUBE-1",           495,  -3.50742E-03,  -3.56342E-03,   37.5000E-03,NA,NA,"",   5.16706E-03,            0.,   38.6066E-03,   167.061E-06,       206.709
C:/ALETube/PressureUpdate/LargeStep/DeformErode/JobErode.odb,Step-1,Increment      6: Step Time =,    60.00,"TUBE-1",           718,  -2.92791E-03,  -4.05307E-03,   50.0000E-03,NA,NA,"",   5.16745E-03,            0.,   51.1063E-03,   167.445E-06,       276.499
C:/ALETube/PressureUpdate/LargeStep/DeformErode/JobErode.odb,Step-1,Increment      6: Step Time =,    60.00,"TUBE-1",           659,  -3.50742E-03,  -3.56342E-03,   50.0000E-03,NA,NA,"",   5.16738E-03,  -433.681E-21,   51.1063E-03,   167.380E-06,       276.265
C:/ALETube/PressureUpdate/LargeStep/DeformErode/JobErode.odb,Step-1,Increment      6: Step Time =,    60.00,"TUBE-1",           823,  -3.50742E-03,  -3.56342E-03,      62.5E-03,NA,NA,"",   5.16770E-03,            0.,   63.6059E-03,   167.696E-06,       345.374
C:/ALETube/PressureUpdate/LargeStep/DeformErode/JobErode.odb,Step-1,Increment      6: Step Time =,    60.00,"TUBE-1",           882,  -2.92791E-03,  -4.05307E-03,      62.5E-03,NA,NA,"",   5.16776E-03,  -433.681E-21,   63.6059E-03,   167.762E-06,       345.664
C:/ALETube/PressureUpdate/LargeStep/DeformErode/JobErode.odb,Step-1,Increment      6: Step Time =,    60.00,"TUBE-1",          1046,  -2.92791E-03,  -4.05307E-03,   75.0000E-03,NA,NA,"",   5.16808E-03,  -433.681E-21,   76.1055E-03,   168.079E-06,       414.832
C:/ALETube/PressureUpdate/LargeStep/DeformErode/JobErode.odb,Step-1,Increment      6: Step Time =,    60.00,"TUBE-1",           987,  -3.50742E-03,  -3.56342E-03,   75.0000E-03,NA,NA,"",   5.16801E-03,            0.,   76.1055E-03,   168.012E-06,       414.483
C:/ALETube/PressureUpdate/LargeStep/DeformErode/JobErode.odb,Step-1,Increment      6: Step Time =,    60.00,"TUBE-1",          1210,  -2.92791E-03,  -4.05307E-03,   87.5000E-03,NA,NA,"",   5.16840E-03,            0.,   88.6049E-03,   168.396E-06,       484.035
C:/ALETube/PressureUpdate/LargeStep/DeformErode/JobErode.odb,Step-1,Increment      6: Step Time =,    60.00,"TUBE-1",          1151,  -3.50742E-03,  -3.56342E-03,   87.5000E-03,NA,NA,"",   5.16833E-03,  -433.681E-21,   88.6049E-03,   168.329E-06,       483.629
C:/ALETube/PressureUpdate/LargeStep/DeformErode/JobErode.odb,Step-1,Increment      6: Step Time =,    60.00,"TUBE-1",          1374,  -2.92791E-03,  -4.05307E-03,   100.000E-03,NA,NA,"",   5.16871E-03,  -433.681E-21,   101.104E-03,   168.712E-06,       553.213
C:/ALETube/PressureUpdate/LargeStep/DeformErode/JobErode.odb,Step-1,Increment      6: Step Time =,    60.00,"TUBE-1",          1315,  -3.50742E-03,  -3.56342E-03,   100.000E-03,NA,NA,"",   5.16865E-03,   433.681E-21,   101.104E-03,   168.646E-06,       552.748
C:/ALETube/PressureUpdate/LargeStep/DeformErode/JobErode.odb,Step-1,Increment      6: Step Time =,    60.00,"TUBE-1",          1538,  -2.92791E-03,  -4.05307E-03,   112.500E-03,NA,NA,"",   5.16903E-03,            0.,   113.603E-03,   169.029E-06,       622.391
C:/ALETube/PressureUpdate/LargeStep/DeformErode/JobErode.odb,Step-1,Increment      6: Step Time =,    60.00,"TUBE-1",          1479,  -3.50742E-03,  -3.56342E-03,   112.500E-03,NA,NA,"",   5.16896E-03,            0.,   113.603E-03,   168.962E-06,       621.868
C:/ALETube/PressureUpdate/LargeStep/DeformErode/JobErode.odb,Step-1,Increment      6: Step Time =,    60.00,"TUBE-1",          1643,  -3.50742E-03,  -3.56342E-03,      125.E-03,NA,NA,"",   5.16928E-03,            0.,   126.103E-03,   169.279E-06,       690.978
C:/ALETube/PressureUpdate/LargeStep/DeformErode/JobErode.odb,Step-1,Increment      6: Step Time =,    60.00,"TUBE-1",          1702,  -2.92791E-03,  -4.05307E-03,      125.E-03,NA,NA,"",   5.16935E-03,  -433.681E-21,   126.103E-03,   169.346E-06,       691.559
C:/ALETube/PressureUpdate/LargeStep/DeformErode/JobErode.odb,Step-1,Increment      6: Step Time =,    60.00,"TUBE-1",          1866,  -2.92791E-03,  -4.05307E-03,   137.500E-03,NA,NA,"",   5.16966E-03,            0.,   138.602E-03,   169.663E-06,       760.723
C:/ALETube/PressureUpdate/LargeStep/DeformErode/JobErode.odb,Step-1,Increment      6: Step Time =,    60.00,"TUBE-1",          1807,  -3.50742E-03,  -3.56342E-03,   137.500E-03,NA,NA,"",   5.16960E-03,            0.,   138.602E-03,   169.595E-06,       760.083
C:/ALETube/PressureUpdate/LargeStep/DeformErode/JobErode.odb,Step-1,Increment      6: Step Time =,    60.00,"TUBE-1",          2030,  -2.92791E-03,  -4.05307E-03,   150.000E-03,NA,NA,"",   5.16998E-03,            0.,   151.101E-03,   169.980E-06,       829.878
C:/ALETube/PressureUpdate/LargeStep/DeformErode/JobErode.odb,Step-1,Increment      6: Step Time =,    60.00,"TUBE-1",          1971,  -3.50742E-03,  -3.56342E-03,   150.000E-03,NA,NA,"",   5.16991E-03,            0.,   151.101E-03,   169.912E-06,       829.181
C:/ALETube/PressureUpdate/LargeStep/DeformErode/JobErode.odb,Step-1,Increment      6: Step Time =,    60.00,"TUBE-1",          2194,  -2.92791E-03,  -4.05307E-03,   162.500E-03,NA,NA,"",   5.17030E-03,  -433.681E-21,   163.600E-03,   170.297E-06,       899.028
C:/ALETube/PressureUpdate/LargeStep/DeformErode/JobErode.odb,Step-1,Increment      6: Step Time =,    60.00,"TUBE-1",          2135,  -3.50742E-03,  -3.56342E-03,   162.500E-03,NA,NA,"",   5.17023E-03,            0.,   163.600E-03,   170.228E-06,       898.273
C:/ALETube/PressureUpdate/LargeStep/DeformErode/JobErode.odb,Step-1,Increment      6: Step Time =,    60.00,"TUBE-1",          2358,  -2.92791E-03,  -4.05307E-03,   175.000E-03,NA,NA,"",   5.17061E-03,  -433.681E-21,   176.098E-03,   170.613E-06,       968.171
C:/ALETube/PressureUpdate/LargeStep/DeformErode/JobErode.odb,Step-1,Increment      6: Step Time =,    60.00,"TUBE-1",          2299,  -3.50742E-03,  -3.56342E-03,   175.000E-03,NA,NA,"",   5.17054E-03,            0.,   176.098E-03,   170.544E-06,       967.357
C:/ALETube/PressureUpdate/LargeStep/DeformErode/JobErode.odb,Step-1,Increment      6: Step Time =,    60.00,"TUBE-1",          2463,  -3.50742E-03,  -3.56342E-03,     187.5E-03,NA,NA,"",   5.17086E-03,            0.,   188.597E-03,   170.861E-06,   1.03644E+03
C:/ALETube/PressureUpdate/LargeStep/DeformErode/JobErode.odb,Step-1,Increment      6: Step Time =,    60.00,"TUBE-1",          2522,  -2.92791E-03,  -4.05307E-03,     187.5E-03,NA,NA,"",   5.17093E-03,            0.,   188.597E-03,   170.930E-06,   1.03731E+03
C:/ALETube/PressureUpdate/LargeStep/DeformErode/JobErode.odb,Step-1,Increment      6: Step Time =,    60.00,"TUBE-1",          2686,  -2.92791E-03,  -4.05307E-03,   200.000E-03,NA,NA,"",   5.17125E-03,  -433.681E-21,   201.096E-03,   171.247E-06,   1.10644E+03
C:/ALETube/PressureUpdate/LargeStep/DeformErode/JobErode.odb,Step-1,Increment      6: Step Time =,    60.00,"TUBE-1",          2627,  -3.50742E-03,  -3.56342E-03,   200.000E-03,NA,NA,"",   5.17118E-03,            0.,   201.096E-03,   171.177E-06,   1.10551E+03
C:/ALETube/PressureUpdate/LargeStep/DeformErode/JobErode.odb,Step-1,Increment      6: Step Time =,    60.00,"TUBE-1",          2850,  -2.92791E-03,  -4.05307E-03,   212.500E-03,NA,NA,"",   5.17156E-03,            0.,   213.594E-03,   171.564E-06,   1.17556E+03
C:/ALETube/PressureUpdate/LargeStep/DeformErode/JobErode.odb,Step-1,Increment      6: Step Time =,    60.00,"TUBE-1",          2791,  -3.50742E-03,  -3.56342E-03,   212.500E-03,NA,NA,"",   5.17149E-03,            0.,   213.594E-03,   171.494E-06,   1.17457E+03
C:/ALETube/PressureUpdate/LargeStep/DeformErode/JobErode.odb,Step-1,Increment      6: Step Time =,    60.00,"TUBE-1",          3014,  -2.92791E-03,  -4.05307E-03,   225.000E-03,NA,NA,"",   5.17188E-03,            0.,   226.093E-03,   171.881E-06,   1.24467E+03
C:/ALETube/PressureUpdate/LargeStep/DeformErode/JobErode.odb,Step-1,Increment      6: Step Time =,    60.00,"TUBE-1",          2955,  -3.50742E-03,  -3.56342E-03,   225.000E-03,NA,NA,"",   5.17181E-03,            0.,   226.093E-03,   171.810E-06,   1.24363E+03
C:/ALETube/PressureUpdate/LargeStep/DeformErode/JobErode.odb,Step-1,Increment      6: Step Time =,    60.00,"TUBE-1",          3178,  -2.92791E-03,  -4.05307E-03,   237.500E-03,NA,NA,"",   5.17220E-03,   433.681E-21,   238.591E-03,   172.197E-06,   1.31378E+03
C:/ALETube/PressureUpdate/LargeStep/DeformErode/JobErode.odb,Step-1,Increment      6: Step Time =,    60.00,"TUBE-1",          3119,  -3.50742E-03,  -3.56342E-03,   237.500E-03,NA,NA,"",   5.17213E-03,            0.,   238.591E-03,   172.127E-06,   1.31268E+03
C:/ALETube/PressureUpdate/LargeStep/DeformErode/JobErode.odb,Step-1,Increment      6: Step Time =,    60.00,"TUBE-1",          3283,  -3.50742E-03,  -3.56342E-03,      250.E-03,NA,NA,"",   5.17244E-03,            0.,   251.090E-03,   172.443E-06,   1.38172E+03
C:/ALETube/PressureUpdate/LargeStep/DeformErode/JobErode.odb,Step-1,Increment      6: Step Time =,    60.00,"TUBE-1",          3342,  -2.92791E-03,  -4.05307E-03,      250.E-03,NA,NA,"",   5.17251E-03,            0.,   251.090E-03,   172.514E-06,   1.38289E+03
C:/ALETube/PressureUpdate/LargeStep/DeformErode/JobErode.odb,Step-1,Increment      6: Step Time =,    60.00,"TUBE-1",          3506,  -2.92791E-03,  -4.05307E-03,   262.500E-03,NA,NA,"",   5.17283E-03,            0.,   263.588E-03,   172.831E-06,   1.45198E+03
C:/ALETube/PressureUpdate/LargeStep/DeformErode/JobErode.odb,Step-1,Increment      6: Step Time =,    60.00,"TUBE-1",          3447,  -3.50742E-03,  -3.56342E-03,   262.500E-03,NA,NA,"",   5.17276E-03,  -433.681E-21,   263.588E-03,   172.760E-06,   1.45076E+03
C:/ALETube/PressureUpdate/LargeStep/DeformErode/JobErode.odb,Step-1,Increment      6: Step Time =,    60.00,"TUBE-1",          3670,  -2.92791E-03,  -4.05307E-03,   275.000E-03,NA,NA,"",   5.17315E-03,            0.,   276.086E-03,   173.148E-06,   1.52107E+03
C:/ALETube/PressureUpdate/LargeStep/DeformErode/JobErode.odb,Step-1,Increment      6: Step Time =,    60.00,"TUBE-1",          3611,  -3.50742E-03,  -3.56342E-03,   275.000E-03,NA,NA,"",   5.17308E-03,            0.,   276.086E-03,   173.076E-06,   1.51979E+03
C:/ALETube/PressureUpdate/LargeStep/DeformErode/JobErode.odb,Step-1,Increment      6: Step Time =,    60.00,"TUBE-1",          3834,  -2.92791E-03,  -4.05307E-03,   287.500E-03,NA,NA,"",   5.17346E-03,  -433.681E-21,   288.584E-03,   173.464E-06,   1.59015E+03
C:/ALETube/PressureUpdate/LargeStep/DeformErode/JobErode.odb,Step-1,Increment      6: Step Time =,    60.00,"TUBE-1",          3775,  -3.50742E-03,  -3.56342E-03,   287.500E-03,NA,NA,"",   5.17339E-03,   433.681E-21,   288.584E-03,   173.392E-06,   1.58882E+03
C:/ALETube/PressureUpdate/LargeStep/DeformErode/JobErode.odb,Step-1,Increment      6: Step Time =,    60.00,"TUBE-1",          3998,  -2.92791E-03,  -4.05307E-03,   300.000E-03,NA,NA,"",   5.17378E-03,            0.,   301.082E-03,   173.781E-06,   1.65923E+03
C:/ALETube/PressureUpdate/LargeStep/DeformErode/JobErode.odb,Step-1,Increment      6: Step Time =,    60.00,"TUBE-1",          3939,  -3.50742E-03,  -3.56342E-03,   300.000E-03,NA,NA,"",   5.17371E-03,            0.,   301.082E-03,   173.709E-06,   1.65783E+03
C:/ALETube/PressureUpdate/LargeStep/DeformErode/JobErode.odb,Step-1,Increment      6: Step Time =,    60.00,"TUBE-1",          4103,  -3.50742E-03,  -3.56342E-03,     312.5E-03,NA,NA,"",   5.17402E-03,            0.,   313.580E-03,   174.025E-06,   1.72685E+03
C:/ALETube/PressureUpdate/LargeStep/DeformErode/JobErode.odb,Step-1,Increment      6: Step Time =,    60.00,"TUBE-1",          4162,  -2.92791E-03,  -4.05307E-03,     312.5E-03,NA,NA,"",   5.17410E-03,            0.,   313.580E-03,   174.098E-06,   1.72830E+03
C:/ALETube/PressureUpdate/LargeStep/DeformErode/JobErode.odb,Step-1,Increment      6: Step Time =,    60.00,"TUBE-1",          4326,  -2.92791E-03,  -4.05307E-03,   325.000E-03,NA,NA,"",   5.17441E-03,   433.681E-21,   326.078E-03,   174.415E-06,   1.79736E+03
C:/ALETube/PressureUpdate/LargeStep/DeformErode/JobErode.odb,Step-1,Increment      6: Step Time =,    60.00,"TUBE-1",          4267,  -3.50742E-03,  -3.56342E-03,   325.000E-03,NA,NA,"",   5.17434E-03,            0.,   326.078E-03,   174.341E-06,   1.79585E+03
C:/ALETube/PressureUpdate/LargeStep/DeformErode/JobErode.odb,Step-1,Increment      6: Step Time =,    60.00,"TUBE-1",          4490,  -2.92791E-03,  -4.05307E-03,   337.500E-03,NA,NA,"",   5.17473E-03,            0.,   338.575E-03,   174.731E-06,   1.86641E+03
C:/ALETube/PressureUpdate/LargeStep/DeformErode/JobErode.odb,Step-1,Increment      6: Step Time =,    60.00,"TUBE-1",          4431,  -3.50742E-03,  -3.56342E-03,   337.500E-03,NA,NA,"",   5.17466E-03,            0.,   338.575E-03,   174.658E-06,   1.86485E+03
C:/ALETube/PressureUpdate/LargeStep/DeformErode/JobErode.odb,Step-1,Increment      6: Step Time =,    60.00,"TUBE-1",          4654,  -2.92791E-03,  -4.05307E-03,   350.000E-03,NA,NA,"",   5.17505E-03,            0.,   351.073E-03,   175.048E-06,   1.93546E+03
C:/ALETube/PressureUpdate/LargeStep/DeformErode/JobErode.odb,Step-1,Increment      6: Step Time =,    60.00,"TUBE-1",          4595,  -3.50742E-03,  -3.56342E-03,   350.000E-03,NA,NA,"",   5.17497E-03,            0.,   351.073E-03,   174.974E-06,   1.93384E+03
C:/ALETube/PressureUpdate/LargeStep/DeformErode/JobErode.odb,Step-1,Increment      6: Step Time =,    60.00,"TUBE-1",          4818,  -2.92791E-03,  -4.05307E-03,   362.500E-03,NA,NA,"",   5.17536E-03,  -433.681E-21,   363.570E-03,   175.365E-06,   2.00450E+03
C:/ALETube/PressureUpdate/LargeStep/DeformErode/JobErode.odb,Step-1,Increment      6: Step Time =,    60.00,"TUBE-1",          4759,  -3.50742E-03,  -3.56342E-03,   362.500E-03,NA,NA,"",   5.17529E-03,            0.,   363.570E-03,   175.291E-06,   2.00282E+03
C:/ALETube/PressureUpdate/LargeStep/DeformErode/JobErode.odb,Step-1,Increment      6: Step Time =,    60.00,"TUBE-1",          4923,  -3.50742E-03,  -3.56342E-03,      375.E-03,NA,NA,"",   5.17561E-03,            0.,   376.068E-03,   175.607E-06,   2.07180E+03
C:/ALETube/PressureUpdate/LargeStep/DeformErode/JobErode.odb,Step-1,Increment      6: Step Time =,    60.00,"TUBE-1",          4982,  -2.92791E-03,  -4.05307E-03,      375.E-03,NA,NA,"",   5.17568E-03,            0.,   376.068E-03,   175.681E-06,   2.07354E+03
C:/ALETube/PressureUpdate/LargeStep/DeformErode/JobErode.odb,Step-1,Increment      6: Step Time =,    60.00,"TUBE-1",          5146,  -2.92791E-03,  -4.05307E-03,   387.500E-03,NA,NA,"",   5.17600E-03,            0.,   388.565E-03,   175.998E-06,   2.14257E+03
C:/ALETube/PressureUpdate/LargeStep/DeformErode/JobErode.odb,Step-1,Increment      6: Step Time =,    60.00,"TUBE-1",          5087,  -3.50742E-03,  -3.56342E-03,   387.500E-03,NA,NA,"",   5.17592E-03,  -163.327E-12,   388.565E-03,   175.923E-06,   2.14077E+03
C:/ALETube/PressureUpdate/LargeStep/DeformErode/JobErode.odb,Step-1,Increment      6: Step Time =,    60.00,"TUBE-1",          5310,  -2.92791E-03,  -4.05307E-03,   400.000E-03,NA,NA,"",   5.17631E-03,  -433.681E-21,   401.062E-03,   176.315E-06,   2.21159E+03
C:/ALETube/PressureUpdate/LargeStep/DeformErode/JobErode.odb,Step-1,Increment      6: Step Time =,    60.00,"TUBE-1",          5251,  -3.50742E-03,  -3.56342E-03,   400.000E-03,NA,NA,"",   5.17624E-03,            0.,   401.062E-03,   176.240E-06,   2.20973E+03
C:/ALETube/PressureUpdate/LargeStep/DeformErode/JobErode.odb,Step-1,Increment      6: Step Time =,    60.00,"TUBE-1",          5474,  -2.92791E-03,  -4.05307E-03,   412.500E-03,NA,NA,"",   5.17663E-03,            0.,   413.560E-03,   176.631E-06,   2.28060E+03
C:/ALETube/PressureUpdate/LargeStep/DeformErode/JobErode.odb,Step-1,Increment      6: Step Time =,    60.00,"TUBE-1",          5415,  -3.50742E-03,  -3.56342E-03,   412.500E-03,NA,NA,"",   5.17656E-03,   433.681E-21,   413.560E-03,   176.556E-06,   2.27869E+03
C:/ALETube/PressureUpdate/LargeStep/DeformErode/JobErode.odb,Step-1,Increment      6: Step Time =,    60.00,"TUBE-1",          5638,  -2.92791E-03,  -4.05307E-03,   425.000E-03,NA,NA,"",   5.17695E-03,            0.,   426.057E-03,   176.948E-06,   2.34961E+03
C:/ALETube/PressureUpdate/LargeStep/DeformErode/JobErode.odb,Step-1,Increment      6: Step Time =,    60.00,"TUBE-1",          5579,  -3.50742E-03,  -3.56342E-03,   425.000E-03,NA,NA,"",   5.17687E-03,            0.,   426.057E-03,   176.872E-06,   2.34764E+03
C:/ALETube/PressureUpdate/LargeStep/DeformErode/JobErode.odb,Step-1,Increment      6: Step Time =,    60.00,"TUBE-1",          5743,  -3.50742E-03,  -3.56342E-03,     437.5E-03,NA,NA,"",   5.17719E-03,            0.,   438.554E-03,   177.188E-06,   2.41658E+03
C:/ALETube/PressureUpdate/LargeStep/DeformErode/JobErode.odb,Step-1,Increment      6: Step Time =,    60.00,"TUBE-1",          5802,  -2.92791E-03,  -4.05307E-03,     437.5E-03,NA,NA,"",   5.17726E-03,            0.,   438.554E-03,   177.265E-06,   2.41861E+03
C:/ALETube/PressureUpdate/LargeStep/DeformErode/JobErode.odb,Step-1,Increment      6: Step Time =,    60.00,"TUBE-1",          5966,  -2.92791E-03,  -4.05307E-03,   450.000E-03,NA,NA,"",   5.17758E-03,            0.,   451.051E-03,   177.581E-06,   2.48761E+03
C:/ALETube/PressureUpdate/LargeStep/DeformErode/JobErode.odb,Step-1,Increment      6: Step Time =,    60.00,"TUBE-1",          5907,  -3.50742E-03,  -3.56342E-03,   450.000E-03,NA,NA,"",   5.17750E-03,   163.327E-12,   451.051E-03,   177.505E-06,   2.48552E+03
C:/ALETube/PressureUpdate/LargeStep/DeformErode/JobErode.odb,Step-1,Increment      6: Step Time =,    60.00,"TUBE-1",          6130,  -2.92791E-03,  -4.05307E-03,   462.500E-03,NA,NA,"",   5.17790E-03,            0.,   463.547E-03,   177.898E-06,   2.55660E+03
C:/ALETube/PressureUpdate/LargeStep/DeformErode/JobErode.odb,Step-1,Increment      6: Step Time =,    60.00,"TUBE-1",          6071,  -3.50742E-03,  -3.56342E-03,   462.500E-03,NA,NA,"",   5.17782E-03,            0.,   463.547E-03,   177.821E-06,   2.55445E+03
C:/ALETube/PressureUpdate/LargeStep/DeformErode/JobErode.odb,Step-1,Increment      6: Step Time =,    60.00,"TUBE-1",          6294,  -2.92791E-03,  -4.05307E-03,   475.000E-03,NA,NA,"",   5.17821E-03,            0.,   476.044E-03,   178.215E-06,   2.62558E+03
C:/ALETube/PressureUpdate/LargeStep/DeformErode/JobErode.odb,Step-1,Increment      6: Step Time =,    60.00,"TUBE-1",          6235,  -3.50742E-03,  -3.56342E-03,   475.000E-03,NA,NA,"",   5.17814E-03,   165.935E-12,   476.044E-03,   178.137E-06,   2.62337E+03
C:/ALETube/PressureUpdate/LargeStep/DeformErode/JobErode.odb,Step-1,Increment      6: Step Time =,    60.00,"TUBE-1",          6458,  -2.92791E-03,  -4.05307E-03,   487.500E-03,NA,NA,"",   5.17853E-03,  -433.681E-21,   488.541E-03,   178.531E-06,   2.69455E+03
C:/ALETube/PressureUpdate/LargeStep/DeformErode/JobErode.odb,Step-1,Increment      6: Step Time =,    60.00,"TUBE-1",          6399,  -3.50742E-03,  -3.56342E-03,   487.500E-03,NA,NA,"",   5.17845E-03,   433.681E-21,   488.541E-03,   178.454E-06,   2.69229E+03
C:/ALETube/PressureUpdate/LargeStep/DeformErode/JobErode.odb,Step-1,Increment      6: Step Time =,    60.00,"TUBE-1",          6563,  -3.50742E-03,  -3.56342E-03,      500.E-03,NA,NA,"",   5.17877E-03,            0.,   501.037E-03,   178.770E-06,   2.76120E+03
C:/ALETube/PressureUpdate/LargeStep/DeformErode/JobErode.odb,Step-1,Increment      6: Step Time =,    60.00,"TUBE-1",          6622,  -2.92791E-03,  -4.05307E-03,      500.E-03,NA,NA,"",   5.17885E-03,            0.,   501.037E-03,   178.848E-06,   2.76352E+03
C:/ALETube/PressureUpdate/LargeStep/DeformErode/JobErode.odb,Step-1,Increment      6: Step Time =,    60.00,"TUBE-1",          6786,  -2.92791E-03,  -4.05307E-03,   512.500E-03,NA,NA,"",   5.17916E-03,            0.,   513.534E-03,   179.164E-06,   2.83248E+03
C:/ALETube/PressureUpdate/LargeStep/DeformErode/JobErode.odb,Step-1,Increment      6: Step Time =,    60.00,"TUBE-1",          6727,  -3.50742E-03,  -3.56342E-03,   512.500E-03,NA,NA,"",   5.17909E-03,            0.,   513.534E-03,   179.086E-06,   2.83010E+03
C:/ALETube/PressureUpdate/LargeStep/DeformErode/JobErode.odb,Step-1,Increment      6: Step Time =,    60.00,"TUBE-1",          6950,  -2.92791E-03,  -4.05307E-03,   525.000E-03,NA,NA,"",   5.17948E-03,            0.,   526.030E-03,   179.481E-06,   2.90143E+03
C:/ALETube/PressureUpdate/LargeStep/DeformErode/JobErode.odb,Step-1,Increment      6: Step Time =,    60.00,"TUBE-1",          6891,  -3.50742E-03,  -3.56342E-03,   525.000E-03,NA,NA,"",   5.17940E-03,            0.,   526.030E-03,   179.402E-06,   2.89900E+03
C:/ALETube/PressureUpdate/LargeStep/DeformErode/JobErode.odb,Step-1,Increment      6: Step Time =,    60.00,"TUBE-1",          7114,  -2.92791E-03,  -4.05307E-03,   537.500E-03,NA,NA,"",   5.17980E-03,  -433.681E-21,   538.526E-03,   179.798E-06,   2.97038E+03
C:/ALETube/PressureUpdate/LargeStep/DeformErode/JobErode.odb,Step-1,Increment      6: Step Time =,    60.00,"TUBE-1",          7055,  -3.50742E-03,  -3.56342E-03,   537.500E-03,NA,NA,"",   5.17972E-03,            0.,   538.526E-03,   179.719E-06,   2.96789E+03
C:/ALETube/PressureUpdate/LargeStep/DeformErode/JobErode.odb,Step-1,Increment      6: Step Time =,    60.00,"TUBE-1",          7278,  -2.92791E-03,  -4.05307E-03,   550.000E-03,NA,NA,"",   5.18011E-03,            0.,   551.023E-03,   180.114E-06,   3.03932E+03
C:/ALETube/PressureUpdate/LargeStep/DeformErode/JobErode.odb,Step-1,Increment      6: Step Time =,    60.00,"TUBE-1",          7219,  -3.50742E-03,  -3.56342E-03,   550.000E-03,NA,NA,"",   5.18003E-03,            0.,   551.023E-03,   180.035E-06,   3.03677E+03
C:/ALETube/PressureUpdate/LargeStep/DeformErode/JobErode.odb,Step-1,Increment      6: Step Time =,    60.00,"TUBE-1",          7383,  -3.50742E-03,  -3.56342E-03,     562.5E-03,NA,NA,"",   5.18035E-03,            0.,   563.519E-03,   180.351E-06,   3.10565E+03
C:/ALETube/PressureUpdate/LargeStep/DeformErode/JobErode.odb,Step-1,Increment      6: Step Time =,    60.00,"TUBE-1",          7442,  -2.92791E-03,  -4.05307E-03,     562.5E-03,NA,NA,"",   5.18043E-03,            0.,   563.519E-03,   180.431E-06,   3.10826E+03
C:/ALETube/PressureUpdate/LargeStep/DeformErode/JobErode.odb,Step-1,Increment      6: Step Time =,    60.00,"TUBE-1",          7606,  -2.92791E-03,  -4.05307E-03,   575.000E-03,NA,NA,"",   5.18075E-03,  -433.681E-21,   576.015E-03,   180.747E-06,   3.17718E+03
C:/ALETube/PressureUpdate/LargeStep/DeformErode/JobErode.odb,Step-1,Increment      6: Step Time =,    60.00,"TUBE-1",          7547,  -3.50742E-03,  -3.56342E-03,   575.000E-03,NA,NA,"",   5.18067E-03,  -433.681E-21,   576.015E-03,   180.667E-06,   3.17451E+03
C:/ALETube/PressureUpdate/LargeStep/DeformErode/JobErode.odb,Step-1,Increment      6: Step Time =,    60.00,"TUBE-1",          7770,  -2.92791E-03,  -4.05307E-03,   587.500E-03,NA,NA,"",   5.18106E-03,            0.,   588.511E-03,   181.064E-06,   3.24610E+03
C:/ALETube/PressureUpdate/LargeStep/DeformErode/JobErode.odb,Step-1,Increment      6: Step Time =,    60.00,"TUBE-1",          7711,  -3.50742E-03,  -3.56342E-03,   587.500E-03,NA,NA,"",   5.18098E-03,            0.,   588.511E-03,   180.983E-06,   3.24338E+03
C:/ALETube/PressureUpdate/LargeStep/DeformErode/JobErode.odb,Step-1,Increment      6: Step Time =,    60.00,"TUBE-1",          7934,  -2.92791E-03,  -4.05307E-03,   600.000E-03,NA,NA,"",   5.18138E-03,  -433.681E-21,   601.007E-03,   181.380E-06,   3.31502E+03
C:/ALETube/PressureUpdate/LargeStep/DeformErode/JobErode.odb,Step-1,Increment      6: Step Time =,    60.00,"TUBE-1",          7875,  -3.50742E-03,  -3.56342E-03,   600.000E-03,NA,NA,"",   5.18130E-03,   433.681E-21,   601.007E-03,   181.300E-06,   3.31223E+03
C:/ALETube/PressureUpdate/LargeStep/DeformErode/JobErode.odb,Step-1,Increment      6: Step Time =,    60.00,"TUBE-1",          8098,  -2.92791E-03,  -4.05307E-03,   612.500E-03,NA,NA,"",   5.18170E-03,            0.,   613.502E-03,   181.697E-06,   3.38392E+03
C:/ALETube/PressureUpdate/LargeStep/DeformErode/JobErode.odb,Step-1,Increment      6: Step Time =,    60.00,"TUBE-1",          8039,  -3.50742E-03,  -3.56342E-03,   612.500E-03,NA,NA,"",   5.18162E-03,            0.,   613.502E-03,   181.616E-06,   3.38108E+03
C:/ALETube/PressureUpdate/LargeStep/DeformErode/JobErode.odb,Step-1,Increment      6: Step Time =,    60.00,"TUBE-1",          8203,  -3.50742E-03,  -3.56342E-03,      625.E-03,NA,NA,"",   5.18193E-03,            0.,   625.998E-03,   181.932E-06,   3.44992E+03
C:/ALETube/PressureUpdate/LargeStep/DeformErode/JobErode.odb,Step-1,Increment      6: Step Time =,    60.00,"TUBE-1",          8262,  -2.92791E-03,  -4.05307E-03,      625.E-03,NA,NA,"",   5.18201E-03,            0.,   625.998E-03,   182.014E-06,   3.45282E+03
C:/ALETube/PressureUpdate/LargeStep/DeformErode/JobErode.odb,Step-1,Increment      6: Step Time =,    60.00,"TUBE-1",          8426,  -2.92791E-03,  -4.05307E-03,   637.500E-03,NA,NA,"",   5.18233E-03,            0.,   638.494E-03,   182.330E-06,   3.52172E+03
C:/ALETube/PressureUpdate/LargeStep/DeformErode/JobErode.odb,Step-1,Increment      6: Step Time =,    60.00,"TUBE-1",          8367,  -3.50742E-03,  -3.56342E-03,   637.500E-03,NA,NA,"",   5.18225E-03,  -433.681E-21,   638.494E-03,   182.248E-06,   3.51876E+03
C:/ALETube/PressureUpdate/LargeStep/DeformErode/JobErode.odb,Step-1,Increment      6: Step Time =,    60.00,"TUBE-1",          8590,  -2.92791E-03,  -4.05307E-03,   650.000E-03,NA,NA,"",   5.18265E-03,            0.,   650.989E-03,   182.647E-06,   3.59060E+03
C:/ALETube/PressureUpdate/LargeStep/DeformErode/JobErode.odb,Step-1,Increment      6: Step Time =,    60.00,"TUBE-1",          8531,  -3.50742E-03,  -3.56342E-03,   650.000E-03,NA,NA,"",   5.18256E-03,  -433.681E-21,   650.989E-03,   182.564E-06,   3.58759E+03
C:/ALETube/PressureUpdate/LargeStep/DeformErode/JobErode.odb,Step-1,Increment      6: Step Time =,    60.00,"TUBE-1",          8754,  -2.92791E-03,  -4.05307E-03,   662.500E-03,NA,NA,"",   5.18296E-03,            0.,   663.485E-03,   182.963E-06,   3.65948E+03
C:/ALETube/PressureUpdate/LargeStep/DeformErode/JobErode.odb,Step-1,Increment      6: Step Time =,    60.00,"TUBE-1",          8695,  -3.50742E-03,  -3.56342E-03,   662.500E-03,NA,NA,"",   5.18288E-03,            0.,   663.485E-03,   182.880E-06,   3.65641E+03
C:/ALETube/PressureUpdate/LargeStep/DeformErode/JobErode.odb,Step-1,Increment      6: Step Time =,    60.00,"TUBE-1",          8918,  -2.92791E-03,  -4.05307E-03,   675.000E-03,NA,NA,"",   5.18328E-03,  -433.681E-21,   675.980E-03,   183.280E-06,   3.72836E+03
C:/ALETube/PressureUpdate/LargeStep/DeformErode/JobErode.odb,Step-1,Increment      6: Step Time =,    60.00,"TUBE-1",          8859,  -3.50742E-03,  -3.56342E-03,   675.000E-03,NA,NA,"",   5.18320E-03,   433.681E-21,   675.980E-03,   183.197E-06,   3.72523E+03
C:/ALETube/PressureUpdate/LargeStep/DeformErode/JobErode.odb,Step-1,Increment      6: Step Time =,    60.00,"TUBE-1",          9023,  -3.50742E-03,  -3.56342E-03,     687.5E-03,NA,NA,"",   5.18351E-03,  -433.681E-21,   688.475E-03,   183.513E-06,   3.79404E+03
C:/ALETube/PressureUpdate/LargeStep/DeformErode/JobErode.odb,Step-1,Increment      6: Step Time =,    60.00,"TUBE-1",          9082,  -2.92791E-03,  -4.05307E-03,     687.5E-03,NA,NA,"",   5.18360E-03,            0.,   688.475E-03,   183.596E-06,   3.79722E+03
C:/ALETube/PressureUpdate/LargeStep/DeformErode/JobErode.odb,Step-1,Increment      6: Step Time =,    60.00,"TUBE-1",          9246,  -2.92791E-03,  -4.05307E-03,   700.000E-03,NA,NA,"",   5.18391E-03,   433.681E-21,   700.970E-03,   183.912E-06,   3.86608E+03
C:/ALETube/PressureUpdate/LargeStep/DeformErode/JobErode.odb,Step-1,Increment      6: Step Time =,    60.00,"TUBE-1",          9187,  -3.50742E-03,  -3.56342E-03,   700.000E-03,NA,NA,"",   5.18383E-03,            0.,   700.970E-03,   183.829E-06,   3.86284E+03
C:/ALETube/PressureUpdate/LargeStep/DeformErode/JobErode.odb,Step-1,Increment      6: Step Time =,    60.00,"TUBE-1",          9410,  -2.92791E-03,  -4.05307E-03,   712.500E-03,NA,NA,"",   5.18423E-03,            0.,   713.466E-03,   184.229E-06,   3.93494E+03
C:/ALETube/PressureUpdate/LargeStep/DeformErode/JobErode.odb,Step-1,Increment      6: Step Time =,    60.00,"TUBE-1",          9351,  -3.50742E-03,  -3.56342E-03,   712.500E-03,NA,NA,"",   5.18414E-03,            0.,   713.466E-03,   184.145E-06,   3.93163E+03
C:/ALETube/PressureUpdate/LargeStep/DeformErode/JobErode.odb,Step-1,Increment      6: Step Time =,    60.00,"TUBE-1",          9574,  -2.92791E-03,  -4.05307E-03,   725.000E-03,NA,NA,"",   5.18455E-03,            0.,   725.961E-03,   184.545E-06,   4.00378E+03
C:/ALETube/PressureUpdate/LargeStep/DeformErode/JobErode.odb,Step-1,Increment      6: Step Time =,    60.00,"TUBE-1",          9515,  -3.50742E-03,  -3.56342E-03,   725.000E-03,NA,NA,"",   5.18446E-03,            0.,   725.961E-03,   184.461E-06,   4.00042E+03
C:/ALETube/PressureUpdate/LargeStep/DeformErode/JobErode.odb,Step-1,Increment      6: Step Time =,    60.00,"TUBE-1",          9738,  -2.92791E-03,  -4.05307E-03,   737.500E-03,NA,NA,"",   5.18486E-03,   433.681E-21,   738.455E-03,   184.862E-06,   4.07262E+03
C:/ALETube/PressureUpdate/LargeStep/DeformErode/JobErode.odb,Step-1,Increment      6: Step Time =,    60.00,"TUBE-1",          9679,  -3.50742E-03,  -3.56342E-03,   737.500E-03,NA,NA,"",   5.18478E-03,   433.681E-21,   738.455E-03,   184.777E-06,   4.06920E+03
C:/ALETube/PressureUpdate/LargeStep/DeformErode/JobErode.odb,Step-1,Increment      6: Step Time =,    60.00,"TUBE-1",          9843,  -3.50742E-03,  -3.56342E-03,      750.E-03,NA,NA,"",   5.18509E-03,            0.,   750.950E-03,   185.093E-06,   4.13798E+03
C:/ALETube/PressureUpdate/LargeStep/DeformErode/JobErode.odb,Step-1,Increment      6: Step Time =,    60.00,"TUBE-1",          9902,  -2.92791E-03,  -4.05307E-03,      750.E-03,NA,NA,"",   5.18518E-03,            0.,   750.950E-03,   185.178E-06,   4.14145E+03
C:/ALETube/PressureUpdate/LargeStep/DeformErode/JobErode.odb,Step-1,Increment      6: Step Time =,    60.00,"TUBE-1",         10066,  -2.92791E-03,  -4.05307E-03,   762.500E-03,NA,NA,"",   5.18549E-03,            0.,   763.445E-03,   185.495E-06,   4.21028E+03
C:/ALETube/PressureUpdate/LargeStep/DeformErode/JobErode.odb,Step-1,Increment      6: Step Time =,    60.00,"TUBE-1",         10007,  -3.50742E-03,  -3.56342E-03,   762.500E-03,NA,NA,"",   5.18541E-03,            0.,   763.445E-03,   185.409E-06,   4.20675E+03
C:/ALETube/PressureUpdate/LargeStep/DeformErode/JobErode.odb,Step-1,Increment      6: Step Time =,    60.00,"TUBE-1",         10230,  -2.92791E-03,  -4.05307E-03,   775.000E-03,NA,NA,"",   5.18581E-03,   433.681E-21,   775.940E-03,   185.811E-06,   4.27910E+03
C:/ALETube/PressureUpdate/LargeStep/DeformErode/JobErode.odb,Step-1,Increment      6: Step Time =,    60.00,"TUBE-1",         10171,  -3.50742E-03,  -3.56342E-03,   775.000E-03,NA,NA,"",   5.18573E-03,            0.,   775.940E-03,   185.726E-06,   4.27551E+03
C:/ALETube/PressureUpdate/LargeStep/DeformErode/JobErode.odb,Step-1,Increment      6: Step Time =,    60.00,"TUBE-1",         10394,  -2.92791E-03,  -4.05307E-03,   787.500E-03,NA,NA,"",   5.18613E-03,            0.,   788.434E-03,   186.128E-06,   4.34791E+03
C:/ALETube/PressureUpdate/LargeStep/DeformErode/JobErode.odb,Step-1,Increment      6: Step Time =,    60.00,"TUBE-1",         10335,  -3.50742E-03,  -3.56342E-03,   787.500E-03,NA,NA,"",   5.18604E-03,            0.,   788.434E-03,   186.042E-06,   4.34427E+03
C:/ALETube/PressureUpdate/LargeStep/DeformErode/JobErode.odb,Step-1,Increment      6: Step Time =,    60.00,"TUBE-1",         10558,  -2.92791E-03,  -4.05307E-03,   800.000E-03,NA,NA,"",   5.18644E-03,            0.,   800.929E-03,   186.444E-06,   4.41672E+03
C:/ALETube/PressureUpdate/LargeStep/DeformErode/JobErode.odb,Step-1,Increment      6: Step Time =,    60.00,"TUBE-1",         10499,  -3.50742E-03,  -3.56342E-03,   800.000E-03,NA,NA,"",   5.18636E-03,            0.,   800.929E-03,   186.358E-06,   4.41301E+03
C:/ALETube/PressureUpdate/LargeStep/DeformErode/JobErode.odb,Step-1,Increment      6: Step Time =,    60.00,"TUBE-1",         10663,  -3.50742E-03,  -3.56342E-03,     812.5E-03,NA,NA,"",   5.18667E-03,            0.,   813.423E-03,   186.674E-06,   4.48176E+03
C:/ALETube/PressureUpdate/LargeStep/DeformErode/JobErode.odb,Step-1,Increment      6: Step Time =,    60.00,"TUBE-1",         10722,  -2.92791E-03,  -4.05307E-03,     812.5E-03,NA,NA,"",   5.18676E-03,            0.,   813.423E-03,   186.760E-06,   4.48552E+03
C:/ALETube/PressureUpdate/LargeStep/DeformErode/JobErode.odb,Step-1,Increment      6: Step Time =,    60.00,"TUBE-1",         10886,  -2.92791E-03,  -4.05307E-03,   825.000E-03,NA,NA,"",   5.18708E-03,            0.,   825.917E-03,   187.077E-06,   4.55431E+03
C:/ALETube/PressureUpdate/LargeStep/DeformErode/JobErode.odb,Step-1,Increment      6: Step Time =,    60.00,"TUBE-1",         10827,  -3.50742E-03,  -3.56342E-03,   825.000E-03,NA,NA,"",   5.18699E-03,  -433.681E-21,   825.917E-03,   186.990E-06,   4.55049E+03
C:/ALETube/PressureUpdate/LargeStep/DeformErode/JobErode.odb,Step-1,Increment      6: Step Time =,    60.00,"TUBE-1",         11050,  -2.92791E-03,  -4.05307E-03,   837.500E-03,NA,NA,"",   5.18739E-03,            0.,   838.412E-03,   187.393E-06,   4.62310E+03
C:/ALETube/PressureUpdate/LargeStep/DeformErode/JobErode.odb,Step-1,Increment      6: Step Time =,    60.00,"TUBE-1",         10991,  -3.50742E-03,  -3.56342E-03,   837.500E-03,NA,NA,"",   5.18731E-03,            0.,   838.412E-03,   187.306E-06,   4.61922E+03
C:/ALETube/PressureUpdate/LargeStep/DeformErode/JobErode.odb,Step-1,Increment      6: Step Time =,    60.00,"TUBE-1",         11214,  -2.92791E-03,  -4.05307E-03,   850.000E-03,NA,NA,"",   5.18771E-03,            0.,   850.906E-03,   187.710E-06,   4.69188E+03
C:/ALETube/PressureUpdate/LargeStep/DeformErode/JobErode.odb,Step-1,Increment      6: Step Time =,    60.00,"TUBE-1",         11155,  -3.50742E-03,  -3.56342E-03,   850.000E-03,NA,NA,"",   5.18762E-03,   433.681E-21,   850.906E-03,   187.622E-06,   4.68794E+03
C:/ALETube/PressureUpdate/LargeStep/DeformErode/JobErode.odb,Step-1,Increment      6: Step Time =,    60.00,"TUBE-1",         11378,  -2.92791E-03,  -4.05307E-03,   862.500E-03,NA,NA,"",   5.18803E-03,            0.,   863.400E-03,   188.026E-06,   4.76065E+03
C:/ALETube/PressureUpdate/LargeStep/DeformErode/JobErode.odb,Step-1,Increment      6: Step Time =,    60.00,"TUBE-1",         11319,  -3.50742E-03,  -3.56342E-03,   862.500E-03,NA,NA,"",   5.18794E-03,            0.,   863.400E-03,   187.938E-06,   4.75666E+03
C:/ALETube/PressureUpdate/LargeStep/DeformErode/JobErode.odb,Step-1,Increment      6: Step Time =,    60.00,"TUBE-1",         11483,  -3.50742E-03,  -3.56342E-03,      875.E-03,NA,NA,"",   5.18825E-03,   433.681E-21,   875.894E-03,   188.254E-06,   4.82536E+03
C:/ALETube/PressureUpdate/LargeStep/DeformErode/JobErode.odb,Step-1,Increment      6: Step Time =,    60.00,"TUBE-1",         11542,  -2.92791E-03,  -4.05307E-03,      875.E-03,NA,NA,"",   5.18834E-03,            0.,   875.894E-03,   188.342E-06,   4.82942E+03
C:/ALETube/PressureUpdate/LargeStep/DeformErode/JobErode.odb,Step-1,Increment      6: Step Time =,    60.00,"TUBE-1",         11706,  -2.92791E-03,  -4.05307E-03,   887.500E-03,NA,NA,"",   5.18866E-03,            0.,   888.388E-03,   188.659E-06,   4.89817E+03
C:/ALETube/PressureUpdate/LargeStep/DeformErode/JobErode.odb,Step-1,Increment      6: Step Time =,    60.00,"TUBE-1",         11647,  -3.50742E-03,  -3.56342E-03,   887.500E-03,NA,NA,"",   5.18857E-03,            0.,   888.388E-03,   188.570E-06,   4.89406E+03
C:/ALETube/PressureUpdate/LargeStep/DeformErode/JobErode.odb,Step-1,Increment      6: Step Time =,    60.00,"TUBE-1",         11870,  -2.92791E-03,  -4.05307E-03,   900.000E-03,NA,NA,"",   5.18898E-03,   433.681E-21,   900.881E-03,   188.975E-06,   4.96693E+03
C:/ALETube/PressureUpdate/LargeStep/DeformErode/JobErode.odb,Step-1,Increment      6: Step Time =,    60.00,"TUBE-1",         11811,  -3.50742E-03,  -3.56342E-03,   900.000E-03,NA,NA,"",   5.18889E-03,   165.935E-12,   900.881E-03,   188.886E-06,   4.96276E+03
C:/ALETube/PressureUpdate/LargeStep/DeformErode/JobErode.odb,Step-1,Increment      6: Step Time =,    60.00,"TUBE-1",         12034,  -2.92791E-03,  -4.05307E-03,   912.500E-03,NA,NA,"",   5.18929E-03,  -433.681E-21,   913.375E-03,   189.291E-06,   5.03567E+03
C:/ALETube/PressureUpdate/LargeStep/DeformErode/JobErode.odb,Step-1,Increment      6: Step Time =,    60.00,"TUBE-1",         11975,  -3.50742E-03,  -3.56342E-03,   912.500E-03,NA,NA,"",   5.18920E-03,            0.,   913.375E-03,   189.202E-06,   5.03145E+03
C:/ALETube/PressureUpdate/LargeStep/DeformErode/JobErode.odb,Step-1,Increment      6: Step Time =,    60.00,"TUBE-1",         12198,  -2.92791E-03,  -4.05307E-03,   925.000E-03,NA,NA,"",   5.18961E-03,  -433.681E-21,   925.869E-03,   189.608E-06,   5.10441E+03
C:/ALETube/PressureUpdate/LargeStep/DeformErode/JobErode.odb,Step-1,Increment      6: Step Time =,    60.00,"TUBE-1",         12139,  -3.50742E-03,  -3.56342E-03,   925.000E-03,NA,NA,"",   5.18952E-03,            0.,   925.869E-03,   189.518E-06,   5.10013E+03
C:/ALETube/PressureUpdate/LargeStep/DeformErode/JobErode.odb,Step-1,Increment      6: Step Time =,    60.00,"TUBE-1",         12303,  -3.50742E-03,  -3.56342E-03,     937.5E-03,NA,NA,"",   5.18983E-03,  -163.327E-12,   938.362E-03,   189.834E-06,   5.16880E+03
C:/ALETube/PressureUpdate/LargeStep/DeformErode/JobErode.odb,Step-1,Increment      6: Step Time =,    60.00,"TUBE-1",         12362,  -2.92791E-03,  -4.05307E-03,     937.5E-03,NA,NA,"",   5.18992E-03,  -433.681E-21,   938.362E-03,   189.924E-06,   5.17314E+03
C:/ALETube/PressureUpdate/LargeStep/DeformErode/JobErode.odb,Step-1,Increment      6: Step Time =,    60.00,"TUBE-1",         12526,  -2.92791E-03,  -4.05307E-03,   950.000E-03,NA,NA,"",   5.19024E-03,            0.,   950.856E-03,   190.240E-06,   5.24187E+03
C:/ALETube/PressureUpdate/LargeStep/DeformErode/JobErode.odb,Step-1,Increment      6: Step Time =,    60.00,"TUBE-1",         12467,  -3.50742E-03,  -3.56342E-03,   950.000E-03,NA,NA,"",   5.19015E-03,            0.,   950.856E-03,   190.150E-06,   5.23747E+03
C:/ALETube/PressureUpdate/LargeStep/DeformErode/JobErode.odb,Step-1,Increment      6: Step Time =,    60.00,"TUBE-1",         12690,  -2.92791E-03,  -4.05307E-03,   962.500E-03,NA,NA,"",   5.19056E-03,            0.,   963.349E-03,   190.557E-06,   5.31059E+03
C:/ALETube/PressureUpdate/LargeStep/DeformErode/JobErode.odb,Step-1,Increment      6: Step Time =,    60.00,"TUBE-1",         12631,  -3.50742E-03,  -3.56342E-03,   962.500E-03,NA,NA,"",   5.19047E-03,   165.935E-12,   963.349E-03,   190.466E-06,   5.30613E+03
C:/ALETube/PressureUpdate/LargeStep/DeformErode/JobErode.odb,Step-1,Increment      6: Step Time =,    60.00,"TUBE-1",         12854,  -2.92791E-03,  -4.05307E-03,   975.000E-03,NA,NA,"",   5.19087E-03,  -433.681E-21,   975.842E-03,   190.873E-06,   5.37930E+03
C:/ALETube/PressureUpdate/LargeStep/DeformErode/JobErode.odb,Step-1,Increment      6: Step Time =,    60.00,"TUBE-1",         12795,  -3.50742E-03,  -3.56342E-03,   975.000E-03,NA,NA,"",   5.19078E-03,  -433.681E-21,   975.842E-03,   190.782E-06,   5.37479E+03
C:/ALETube/PressureUpdate/LargeStep/DeformErode/JobErode.odb,Step-1,Increment      6: Step Time =,    60.00,"TUBE-1",         13018,  -2.92791E-03,  -4.05307E-03,   987.500E-03,NA,NA,"",   5.19119E-03,  -433.681E-21,   988.336E-03,   191.189E-06,   5.44800E+03
C:/ALETube/PressureUpdate/LargeStep/DeformErode/JobErode.odb,Step-1,Increment      6: Step Time =,    60.00,"TUBE-1",         12959,  -3.50742E-03,  -3.56342E-03,   987.500E-03,NA,NA,"",   5.19110E-03,            0.,   988.336E-03,   191.098E-06,   5.44344E+03
C:/ALETube/PressureUpdate/LargeStep/DeformErode/JobErode.odb,Step-1,Increment      6: Step Time =,    60.00,"TUBE-1",         13123,  -3.50742E-03,  -3.56342E-03,            1.,NA,NA,"",   5.19141E-03,            0.,       1.00083,   191.414E-06,   5.51208E+03
C:/ALETube/PressureUpdate/LargeStep/DeformErode/JobErode.odb,Step-1,Increment      6: Step Time =,    60.00,"TUBE-1",         13182,  -2.92791E-03,  -4.05307E-03,            1.,NA,NA,"",   5.19151E-03,  -433.681E-21,       1.00083,   191.506E-06,   5.51670E+03
C:/ALETube/PressureUpdate/LargeStep/DeformErode/JobErode.odb,Step-1,Increment      6: Step Time =,    60.00,"TUBE-1",         13346,  -2.92791E-03,  -4.05307E-03,       1.01250,NA,NA,"",   5.19182E-03,  -433.681E-21,       1.01332,   191.822E-06,   5.58540E+03
C:/ALETube/PressureUpdate/LargeStep/DeformErode/JobErode.odb,Step-1,Increment      6: Step Time =,    60.00,"TUBE-1",         13287,  -3.50742E-03,  -3.56342E-03,       1.01250,NA,NA,"",   5.19173E-03,            0.,       1.01332,   191.730E-06,   5.58071E+03
C:/ALETube/PressureUpdate/LargeStep/DeformErode/JobErode.odb,Step-1,Increment      6: Step Time =,    60.00,"TUBE-1",         13510,  -2.92791E-03,  -4.05307E-03,       1.02500,NA,NA,"",   5.19214E-03,            0.,       1.02581,   192.138E-06,   5.65408E+03
C:/ALETube/PressureUpdate/LargeStep/DeformErode/JobErode.odb,Step-1,Increment      6: Step Time =,    60.00,"TUBE-1",         13451,  -3.50742E-03,  -3.56342E-03,       1.02500,NA,NA,"",   5.19205E-03,            0.,       1.02581,   192.046E-06,   5.64934E+03
C:/ALETube/PressureUpdate/LargeStep/DeformErode/JobErode.odb,Step-1,Increment      6: Step Time =,    60.00,"TUBE-1",         13615,  -3.50742E-03,  -3.56342E-03,       1.03750,NA,NA,"",   5.19236E-03,            0.,       1.03831,   192.361E-06,   5.71796E+03
C:/ALETube/PressureUpdate/LargeStep/DeformErode/JobErode.odb,Step-1,Increment      6: Step Time =,    60.00,"TUBE-1",         13674,  -2.92791E-03,  -4.05307E-03,       1.03750,NA,NA,"",   5.19245E-03,   433.681E-21,       1.03831,   192.454E-06,   5.72276E+03
C:/ALETube/PressureUpdate/LargeStep/DeformErode/JobErode.odb,Step-1,Increment      6: Step Time =,    60.00,"TUBE-1",         13838,  -2.92791E-03,  -4.05307E-03,       1.05000,NA,NA,"",   5.19277E-03,   433.681E-21,       1.05080,   192.771E-06,   5.79143E+03
C:/ALETube/PressureUpdate/LargeStep/DeformErode/JobErode.odb,Step-1,Increment      6: Step Time =,    60.00,"TUBE-1",         13779,  -3.50742E-03,  -3.56342E-03,       1.05000,NA,NA,"",   5.19268E-03,            0.,       1.05080,   192.677E-06,   5.78658E+03
C:/ALETube/PressureUpdate/LargeStep/DeformErode/JobErode.odb,Step-1,Increment      6: Step Time =,    60.00,"TUBE-1",         14002,  -2.92791E-03,  -4.05307E-03,        1.0625,NA,NA,"",   5.19309E-03,            0.,       1.06329,   193.087E-06,   5.86010E+03
C:/ALETube/PressureUpdate/LargeStep/DeformErode/JobErode.odb,Step-1,Increment      6: Step Time =,    60.00,"TUBE-1",         13943,  -3.50742E-03,  -3.56342E-03,        1.0625,NA,NA,"",   5.19299E-03,   433.681E-21,       1.06329,   192.993E-06,   5.85519E+03
C:/ALETube/PressureUpdate/LargeStep/DeformErode/JobErode.odb,Step-1,Increment      6: Step Time =,    60.00,"TUBE-1",         14107,  -3.50742E-03,  -3.56342E-03,       1.07500,NA,NA,"",   5.19331E-03,            0.,       1.07579,   193.309E-06,   5.92379E+03
C:/ALETube/PressureUpdate/LargeStep/DeformErode/JobErode.odb,Step-1,Increment      6: Step Time =,    60.00,"TUBE-1",         14166,  -2.92791E-03,  -4.05307E-03,       1.07500,NA,NA,"",   5.19340E-03,            0.,       1.07579,   193.403E-06,   5.92875E+03
C:/ALETube/PressureUpdate/LargeStep/DeformErode/JobErode.odb,Step-1,Increment      6: Step Time =,    60.00,"TUBE-1",         14330,  -2.92791E-03,  -4.05307E-03,       1.08750,NA,NA,"",   5.19372E-03,            0.,       1.08828,   193.719E-06,   5.99741E+03
C:/ALETube/PressureUpdate/LargeStep/DeformErode/JobErode.odb,Step-1,Increment      6: Step Time =,    60.00,"TUBE-1",         14271,  -3.50742E-03,  -3.56342E-03,       1.08750,NA,NA,"",   5.19363E-03,            0.,       1.08828,   193.625E-06,   5.99238E+03
C:/ALETube/PressureUpdate/LargeStep/DeformErode/JobErode.odb,Step-1,Increment      6: Step Time =,    60.00,"TUBE-1",         14494,  -2.92791E-03,  -4.05307E-03,       1.10000,NA,NA,"",   5.19404E-03,            0.,       1.10077,   194.036E-06,   6.06605E+03
C:/ALETube/PressureUpdate/LargeStep/DeformErode/JobErode.odb,Step-1,Increment      6: Step Time =,    60.00,"TUBE-1",         14435,  -3.50742E-03,  -3.56342E-03,       1.10000,NA,NA,"",   5.19394E-03,            0.,       1.10077,   193.941E-06,   6.06097E+03
C:/ALETube/PressureUpdate/LargeStep/DeformErode/JobErode.odb,Step-1,Increment      6: Step Time =,    60.00,"TUBE-1",         14658,  -2.92791E-03,  -4.05307E-03,       1.11250,NA,NA,"",   5.19435E-03,            0.,       1.11326,   194.352E-06,   6.13469E+03
C:/ALETube/PressureUpdate/LargeStep/DeformErode/JobErode.odb,Step-1,Increment      6: Step Time =,    60.00,"TUBE-1",         14599,  -3.50742E-03,  -3.56342E-03,       1.11250,NA,NA,"",   5.19426E-03,  -433.681E-21,       1.11326,   194.257E-06,   6.12955E+03
C:/ALETube/PressureUpdate/LargeStep/DeformErode/JobErode.odb,Step-1,Increment      6: Step Time =,    60.00,"TUBE-1",         14822,  -2.92791E-03,  -4.05307E-03,         1.125,NA,NA,"",   5.19467E-03,            0.,       1.12576,   194.668E-06,   6.20332E+03
C:/ALETube/PressureUpdate/LargeStep/DeformErode/JobErode.odb,Step-1,Increment      6: Step Time =,    60.00,"TUBE-1",         14763,  -3.50742E-03,  -3.56342E-03,         1.125,NA,NA,"",   5.19457E-03,   433.681E-21,       1.12576,   194.573E-06,   6.19812E+03
C:/ALETube/PressureUpdate/LargeStep/DeformErode/JobErode.odb,Step-1,Increment      6: Step Time =,    60.00,"TUBE-1",         14927,  -3.50742E-03,  -3.56342E-03,       1.13750,NA,NA,"",   5.19489E-03,            0.,       1.13825,   194.888E-06,   6.26669E+03
C:/ALETube/PressureUpdate/LargeStep/DeformErode/JobErode.odb,Step-1,Increment      6: Step Time =,    60.00,"TUBE-1",         14986,  -2.92791E-03,  -4.05307E-03,       1.13750,NA,NA,"",   5.19498E-03,   272.682E-12,       1.13825,   194.984E-06,   6.27195E+03
C:/ALETube/PressureUpdate/LargeStep/DeformErode/JobErode.odb,Step-1,Increment      6: Step Time =,    60.00,"TUBE-1",         15150,  -2.92791E-03,  -4.05307E-03,       1.15000,NA,NA,"",   5.19530E-03,   433.681E-21,       1.15074,   195.300E-06,   6.34057E+03
C:/ALETube/PressureUpdate/LargeStep/DeformErode/JobErode.odb,Step-1,Increment      6: Step Time =,    60.00,"TUBE-1",         15091,  -3.50742E-03,  -3.56342E-03,       1.15000,NA,NA,"",   5.19520E-03,            0.,       1.15074,   195.204E-06,   6.33525E+03
C:/ALETube/PressureUpdate/LargeStep/DeformErode/JobErode.odb,Step-1,Increment      6: Step Time =,    60.00,"TUBE-1",         15314,  -2.92791E-03,  -4.05307E-03,       1.16250,NA,NA,"",   5.19562E-03,            0.,       1.16323,   195.617E-06,   6.40918E+03
C:/ALETube/PressureUpdate/LargeStep/DeformErode/JobErode.odb,Step-1,Increment      6: Step Time =,    60.00,"TUBE-1",         15255,  -3.50742E-03,  -3.56342E-03,       1.16250,NA,NA,"",   5.19552E-03,            0.,       1.16323,   195.520E-06,   6.40381E+03
C:/ALETube/PressureUpdate/LargeStep/DeformErode/JobErode.odb,Step-1,Increment      6: Step Time =,    60.00,"TUBE-1",         15478,  -2.92791E-03,  -4.05307E-03,       1.17500,NA,NA,"",   5.19593E-03,            0.,       1.17572,   195.933E-06,   6.47778E+03
C:/ALETube/PressureUpdate/LargeStep/DeformErode/JobErode.odb,Step-1,Increment      6: Step Time =,    60.00,"TUBE-1",         15419,  -3.50742E-03,  -3.56342E-03,       1.17500,NA,NA,"",   5.19584E-03,            0.,       1.17572,   195.836E-06,   6.47235E+03
C:/ALETube/PressureUpdate/LargeStep/DeformErode/JobErode.odb,Step-1,Increment      6: Step Time =,    60.00,"TUBE-1",         15642,  -2.92791E-03,  -4.05307E-03,        1.1875,NA,NA,"",   5.19625E-03,            0.,       1.18822,   196.249E-06,   6.54638E+03
C:/ALETube/PressureUpdate/LargeStep/DeformErode/JobErode.odb,Step-1,Increment      6: Step Time =,    60.00,"TUBE-1",         15583,  -3.50742E-03,  -3.56342E-03,        1.1875,NA,NA,"",   5.19615E-03,   433.681E-21,       1.18822,   196.152E-06,   6.54090E+03
C:/ALETube/PressureUpdate/LargeStep/DeformErode/JobErode.odb,Step-1,Increment      6: Step Time =,    60.00,"TUBE-1",         15747,  -3.50742E-03,  -3.56342E-03,       1.20000,NA,NA,"",   5.19647E-03,            0.,       1.20071,   196.468E-06,   6.60943E+03
C:/ALETube/PressureUpdate/LargeStep/DeformErode/JobErode.odb,Step-1,Increment      6: Step Time =,    60.00,"TUBE-1",         15806,  -2.92791E-03,  -4.05307E-03,       1.20000,NA,NA,"",   5.19656E-03,  -433.681E-21,       1.20071,   196.565E-06,   6.61497E+03
C:/ALETube/PressureUpdate/LargeStep/DeformErode/JobErode.odb,Step-1,Increment      6: Step Time =,    60.00,"TUBE-1",         15970,  -2.92791E-03,  -4.05307E-03,       1.21250,NA,NA,"",   5.19688E-03,            0.,       1.21320,   196.881E-06,   6.68356E+03
C:/ALETube/PressureUpdate/LargeStep/DeformErode/JobErode.odb,Step-1,Increment      6: Step Time =,    60.00,"TUBE-1",         15911,  -3.50742E-03,  -3.56342E-03,       1.21250,NA,NA,"",   5.19678E-03,            0.,       1.21320,   196.783E-06,   6.67796E+03
C:/ALETube/PressureUpdate/LargeStep/DeformErode/JobErode.odb,Step-1,Increment      6: Step Time =,    60.00,"TUBE-1",         16134,  -2.92791E-03,  -4.05307E-03,       1.22500,NA,NA,"",   5.19720E-03,            0.,       1.22569,   197.197E-06,   6.75214E+03
C:/ALETube/PressureUpdate/LargeStep/DeformErode/JobErode.odb,Step-1,Increment      6: Step Time =,    60.00,"TUBE-1",         16075,  -3.50742E-03,  -3.56342E-03,       1.22500,NA,NA,"",   5.19710E-03,            0.,       1.22569,   197.099E-06,   6.74648E+03
C:/ALETube/PressureUpdate/LargeStep/DeformErode/JobErode.odb,Step-1,Increment      6: Step Time =,    60.00,"TUBE-1",         16298,  -2.92791E-03,  -4.05307E-03,       1.23750,NA,NA,"",   5.19751E-03,  -433.681E-21,       1.23818,   197.513E-06,   6.82071E+03
C:/ALETube/PressureUpdate/LargeStep/DeformErode/JobErode.odb,Step-1,Increment      6: Step Time =,    60.00,"TUBE-1",         16239,  -3.50742E-03,  -3.56342E-03,       1.23750,NA,NA,"",   5.19741E-03,            0.,       1.23818,   197.415E-06,   6.81499E+03
C:/ALETube/PressureUpdate/LargeStep/DeformErode/JobErode.odb,Step-1,Increment      6: Step Time =,    60.00,"TUBE-1",         16462,  -2.92791E-03,  -4.05307E-03,          1.25,NA,NA,"",   5.19783E-03,  -433.681E-21,       1.25067,   197.830E-06,   6.88927E+03
C:/ALETube/PressureUpdate/LargeStep/DeformErode/JobErode.odb,Step-1,Increment      6: Step Time =,    60.00,"TUBE-1",         16403,  -3.50742E-03,  -3.56342E-03,          1.25,NA,NA,"",   5.19773E-03,            0.,       1.25067,   197.731E-06,   6.88350E+03
C:/ALETube/PressureUpdate/LargeStep/DeformErode/JobErode.odb,Step-1,Increment      6: Step Time =,    60.00,"TUBE-1",         16567,  -3.50742E-03,  -3.56342E-03,       1.26250,NA,NA,"",   5.19805E-03,            0.,       1.26316,   198.047E-06,   6.95200E+03
C:/ALETube/PressureUpdate/LargeStep/DeformErode/JobErode.odb,Step-1,Increment      6: Step Time =,    60.00,"TUBE-1",         16626,  -2.92791E-03,  -4.05307E-03,       1.26250,NA,NA,"",   5.19815E-03,            0.,       1.26316,   198.146E-06,   6.95783E+03
C:/ALETube/PressureUpdate/LargeStep/DeformErode/JobErode.odb,Step-1,Increment      6: Step Time =,    60.00,"TUBE-1",         16790,  -2.92791E-03,  -4.05307E-03,       1.27500,NA,NA,"",   5.19846E-03,   433.681E-21,       1.27566,   198.462E-06,   7.02638E+03
C:/ALETube/PressureUpdate/LargeStep/DeformErode/JobErode.odb,Step-1,Increment      6: Step Time =,    60.00,"TUBE-1",         16731,  -3.50742E-03,  -3.56342E-03,       1.27500,NA,NA,"",   5.19836E-03,            0.,       1.27566,   198.362E-06,   7.02050E+03
C:/ALETube/PressureUpdate/LargeStep/DeformErode/JobErode.odb,Step-1,Increment      6: Step Time =,    60.00,"TUBE-1",         16954,  -2.92791E-03,  -4.05307E-03,       1.28750,NA,NA,"",   5.19878E-03,   433.681E-21,       1.28815,   198.778E-06,   7.09493E+03
C:/ALETube/PressureUpdate/LargeStep/DeformErode/JobErode.odb,Step-1,Increment      6: Step Time =,    60.00,"TUBE-1",         16895,  -3.50742E-03,  -3.56342E-03,       1.28750,NA,NA,"",   5.19868E-03,            0.,       1.28815,   198.678E-06,   7.08899E+03
C:/ALETube/PressureUpdate/LargeStep/DeformErode/JobErode.odb,Step-1,Increment      6: Step Time =,    60.00,"TUBE-1",         17118,  -2.92791E-03,  -4.05307E-03,       1.30000,NA,NA,"",   5.19909E-03,            0.,       1.30064,   199.094E-06,   7.16347E+03
C:/ALETube/PressureUpdate/LargeStep/DeformErode/JobErode.odb,Step-1,Increment      6: Step Time =,    60.00,"TUBE-1",         17059,  -3.50742E-03,  -3.56342E-03,       1.30000,NA,NA,"",   5.19899E-03,  -433.681E-21,       1.30064,   198.994E-06,   7.15747E+03
C:/ALETube/PressureUpdate/LargeStep/DeformErode/JobErode.odb,Step-1,Increment      6: Step Time =,    60.00,"TUBE-1",         17282,  -2.92791E-03,  -4.05307E-03,        1.3125,NA,NA,"",   5.19941E-03,   188.736E-12,       1.31313,   199.410E-06,   7.23200E+03
C:/ALETube/PressureUpdate/LargeStep/DeformErode/JobErode.odb,Step-1,Increment      6: Step Time =,    60.00,"TUBE-1",         17223,  -3.50742E-03,  -3.56342E-03,        1.3125,NA,NA,"",   5.19931E-03,            0.,       1.31313,   199.310E-06,   7.22594E+03
C:/ALETube/PressureUpdate/LargeStep/DeformErode/JobErode.odb,Step-1,Increment      6: Step Time =,    60.00,"TUBE-1",         17387,  -3.50742E-03,  -3.56342E-03,       1.32500,NA,NA,"",   5.19963E-03,            0.,       1.32562,   199.625E-06,   7.29441E+03
C:/ALETube/PressureUpdate/LargeStep/DeformErode/JobErode.odb,Step-1,Increment      6: Step Time =,    60.00,"TUBE-1",         17446,  -2.92791E-03,  -4.05307E-03,       1.32500,NA,NA,"",   5.19973E-03,  -433.681E-21,       1.32562,   199.726E-06,   7.30053E+03
C:/ALETube/PressureUpdate/LargeStep/DeformErode/JobErode.odb,Step-1,Increment      6: Step Time =,    60.00,"TUBE-1",         17610,  -2.92791E-03,  -4.05307E-03,       1.33750,NA,NA,"",   5.20004E-03,  -433.681E-21,       1.33811,   200.042E-06,   7.36904E+03
C:/ALETube/PressureUpdate/LargeStep/DeformErode/JobErode.odb,Step-1,Increment      6: Step Time =,    60.00,"TUBE-1",         17551,  -3.50742E-03,  -3.56342E-03,       1.33750,NA,NA,"",   5.19994E-03,            0.,       1.33811,   199.941E-06,   7.36287E+03
C:/ALETube/PressureUpdate/LargeStep/DeformErode/JobErode.odb,Step-1,Increment      6: Step Time =,    60.00,"TUBE-1",         17774,  -2.92791E-03,  -4.05307E-03,       1.35000,NA,NA,"",   5.20036E-03,            0.,       1.35060,   200.358E-06,   7.43756E+03
C:/ALETube/PressureUpdate/LargeStep/DeformErode/JobErode.odb,Step-1,Increment      6: Step Time =,    60.00,"TUBE-1",         17715,  -3.50742E-03,  -3.56342E-03,       1.35000,NA,NA,"",   5.20026E-03,            0.,       1.35060,   200.257E-06,   7.43133E+03
C:/ALETube/PressureUpdate/LargeStep/DeformErode/JobErode.odb,Step-1,Increment      6: Step Time =,    60.00,"TUBE-1",         17938,  -2.92791E-03,  -4.05307E-03,       1.36250,NA,NA,"",   5.20067E-03,            0.,       1.36309,   200.674E-06,   7.50606E+03
C:/ALETube/PressureUpdate/LargeStep/DeformErode/JobErode.odb,Step-1,Increment      6: Step Time =,    60.00,"TUBE-1",         17879,  -3.50742E-03,  -3.56342E-03,       1.36250,NA,NA,"",   5.20057E-03,  -433.681E-21,       1.36309,   200.572E-06,   7.49977E+03
C:/ALETube/PressureUpdate/LargeStep/DeformErode/JobErode.odb,Step-1,Increment      6: Step Time =,    60.00,"TUBE-1",         18102,  -2.92791E-03,  -4.05307E-03,         1.375,NA,NA,"",   5.20099E-03,   433.681E-21,       1.37558,   200.990E-06,   7.57456E+03
C:/ALETube/PressureUpdate/LargeStep/DeformErode/JobErode.odb,Step-1,Increment      6: Step Time =,    60.00,"TUBE-1",         18043,  -3.50742E-03,  -3.56342E-03,         1.375,NA,NA,"",   5.20089E-03,   433.681E-21,       1.37558,   200.888E-06,   7.56822E+03
C:/ALETube/PressureUpdate/LargeStep/DeformErode/JobErode.odb,Step-1,Increment      6: Step Time =,    60.00,"TUBE-1",         18207,  -3.50742E-03,  -3.56342E-03,       1.38750,NA,NA,"",   5.20120E-03,   165.935E-12,       1.38807,   201.204E-06,   7.63665E+03
C:/ALETube/PressureUpdate/LargeStep/DeformErode/JobErode.odb,Step-1,Increment      6: Step Time =,    60.00,"TUBE-1",         18266,  -2.92791E-03,  -4.05307E-03,       1.38750,NA,NA,"",   5.20131E-03,            0.,       1.38807,   201.306E-06,   7.64305E+03
C:/ALETube/PressureUpdate/LargeStep/DeformErode/JobErode.odb,Step-1,Increment      6: Step Time =,    60.00,"TUBE-1",         18430,  -2.92791E-03,  -4.05307E-03,       1.40000,NA,NA,"",   5.20162E-03,            0.,       1.40056,   201.622E-06,   7.71153E+03
C:/ALETube/PressureUpdate/LargeStep/DeformErode/JobErode.odb,Step-1,Increment      6: Step Time =,    60.00,"TUBE-1",         18371,  -3.50742E-03,  -3.56342E-03,       1.40000,NA,NA,"",   5.20152E-03,            0.,       1.40056,   201.520E-06,   7.70508E+03
C:/ALETube/PressureUpdate/LargeStep/DeformErode/JobErode.odb,Step-1,Increment      6: Step Time =,    60.00,"TUBE-1",         18594,  -2.92791E-03,  -4.05307E-03,       1.41250,NA,NA,"",   5.20194E-03,            0.,       1.41305,   201.938E-06,   7.78001E+03
C:/ALETube/PressureUpdate/LargeStep/DeformErode/JobErode.odb,Step-1,Increment      6: Step Time =,    60.00,"TUBE-1",         18535,  -3.50742E-03,  -3.56342E-03,       1.41250,NA,NA,"",   5.20184E-03,            0.,       1.41305,   201.835E-06,   7.77350E+03
C:/ALETube/PressureUpdate/LargeStep/DeformErode/JobErode.odb,Step-1,Increment      6: Step Time =,    60.00,"TUBE-1",         18758,  -2.92791E-03,  -4.05307E-03,       1.42500,NA,NA,"",   5.20225E-03,            0.,       1.42554,   202.254E-06,   7.84848E+03
C:/ALETube/PressureUpdate/LargeStep/DeformErode/JobErode.odb,Step-1,Increment      6: Step Time =,    60.00,"TUBE-1",         18699,  -3.50742E-03,  -3.56342E-03,       1.42500,NA,NA,"",   5.20215E-03,            0.,       1.42554,   202.151E-06,   7.84191E+03
C:/ALETube/PressureUpdate/LargeStep/DeformErode/JobErode.odb,Step-1,Increment      6: Step Time =,    60.00,"TUBE-1",         18922,  -2.92791E-03,  -4.05307E-03,        1.4375,NA,NA,"",   5.20257E-03,            0.,       1.43803,   202.570E-06,   7.91695E+03
C:/ALETube/PressureUpdate/LargeStep/DeformErode/JobErode.odb,Step-1,Increment      6: Step Time =,    60.00,"TUBE-1",         18863,  -3.50742E-03,  -3.56342E-03,        1.4375,NA,NA,"",   5.20247E-03,            0.,       1.43803,   202.467E-06,   7.91032E+03
C:/ALETube/PressureUpdate/LargeStep/DeformErode/JobErode.odb,Step-1,Increment      6: Step Time =,    60.00,"TUBE-1",         19027,  -3.50742E-03,  -3.56342E-03,       1.45000,NA,NA,"",   5.20278E-03,   433.681E-21,       1.45052,   202.782E-06,   7.97872E+03
C:/ALETube/PressureUpdate/LargeStep/DeformErode/JobErode.odb,Step-1,Increment      6: Step Time =,    60.00,"TUBE-1",         19086,  -2.92791E-03,  -4.05307E-03,       1.45000,NA,NA,"",   5.20289E-03,            0.,       1.45052,   202.886E-06,   7.98541E+03
C:/ALETube/PressureUpdate/LargeStep/DeformErode/JobErode.odb,Step-1,Increment      6: Step Time =,    60.00,"TUBE-1",         19250,  -2.92791E-03,  -4.05307E-03,       1.46250,NA,NA,"",   5.20320E-03,  -433.681E-21,       1.46301,   203.202E-06,   8.05386E+03
C:/ALETube/PressureUpdate/LargeStep/DeformErode/JobErode.odb,Step-1,Increment      6: Step Time =,    60.00,"TUBE-1",         19191,  -3.50742E-03,  -3.56342E-03,       1.46250,NA,NA,"",   5.20310E-03,            0.,       1.46301,   203.098E-06,   8.04712E+03
C:/ALETube/PressureUpdate/LargeStep/DeformErode/JobErode.odb,Step-1,Increment      6: Step Time =,    60.00,"TUBE-1",         19414,  -2.92791E-03,  -4.05307E-03,       1.47500,NA,NA,"",   5.20352E-03,  -433.681E-21,       1.47550,   203.518E-06,   8.12231E+03
C:/ALETube/PressureUpdate/LargeStep/DeformErode/JobErode.odb,Step-1,Increment      6: Step Time =,    60.00,"TUBE-1",         19355,  -3.50742E-03,  -3.56342E-03,       1.47500,NA,NA,"",   5.20341E-03,            0.,       1.47550,   203.413E-06,   8.11551E+03
C:/ALETube/PressureUpdate/LargeStep/DeformErode/JobErode.odb,Step-1,Increment      6: Step Time =,    60.00,"TUBE-1",         19578,  -2.92791E-03,  -4.05307E-03,       1.48750,NA,NA,"",   5.20383E-03,            0.,       1.48799,   203.834E-06,   8.19074E+03
C:/ALETube/PressureUpdate/LargeStep/DeformErode/JobErode.odb,Step-1,Increment      6: Step Time =,    60.00,"TUBE-1",         19519,  -3.50742E-03,  -3.56342E-03,       1.48750,NA,NA,"",   5.20373E-03,   433.681E-21,       1.48799,   203.729E-06,   8.18389E+03
C:/ALETube/PressureUpdate/LargeStep/DeformErode/JobErode.odb,Step-1,Increment      6: Step Time =,    60.00,"TUBE-1",         19742,  -2.92791E-03,  -4.05307E-03,           1.5,NA,NA,"",   5.20415E-03,   188.736E-12,       1.50048,   204.150E-06,   8.25918E+03
C:/ALETube/PressureUpdate/LargeStep/DeformErode/JobErode.odb,Step-1,Increment      6: Step Time =,    60.00,"TUBE-1",         19683,  -3.50742E-03,  -3.56342E-03,           1.5,NA,NA,"",   5.20404E-03,            0.,       1.50048,   204.045E-06,   8.25226E+03
C:/ALETube/PressureUpdate/LargeStep/DeformErode/JobErode.odb,Step-1,Increment      6: Step Time =,    60.00,"TUBE-1",         19847,  -3.50742E-03,  -3.56342E-03,       1.51250,NA,NA,"",   5.20436E-03,   165.935E-12,       1.51297,   204.360E-06,   8.32063E+03
C:/ALETube/PressureUpdate/LargeStep/DeformErode/JobErode.odb,Step-1,Increment      6: Step Time =,    60.00,"TUBE-1",         19906,  -2.92791E-03,  -4.05307E-03,       1.51250,NA,NA,"",   5.20447E-03,   433.681E-21,       1.51297,   204.466E-06,   8.32760E+03
C:/ALETube/PressureUpdate/LargeStep/DeformErode/JobErode.odb,Step-1,Increment      6: Step Time =,    60.00,"TUBE-1",         20070,  -2.92791E-03,  -4.05307E-03,       1.52500,NA,NA,"",   5.20478E-03,            0.,       1.52546,   204.782E-06,   8.39602E+03
C:/ALETube/PressureUpdate/LargeStep/DeformErode/JobErode.odb,Step-1,Increment      6: Step Time =,    60.00,"TUBE-1",         20011,  -3.50742E-03,  -3.56342E-03,       1.52500,NA,NA,"",   5.20468E-03,            0.,       1.52546,   204.676E-06,   8.38899E+03
C:/ALETube/PressureUpdate/LargeStep/DeformErode/JobErode.odb,Step-1,Increment      6: Step Time =,    60.00,"TUBE-1",         20234,  -2.92791E-03,  -4.05307E-03,       1.53750,NA,NA,"",   5.20510E-03,  -433.681E-21,       1.53795,   205.098E-06,   8.46443E+03
C:/ALETube/PressureUpdate/LargeStep/DeformErode/JobErode.odb,Step-1,Increment      6: Step Time =,    60.00,"TUBE-1",         20175,  -3.50742E-03,  -3.56342E-03,       1.53750,NA,NA,"",   5.20499E-03,            0.,       1.53795,   204.991E-06,   8.45735E+03
C:/ALETube/PressureUpdate/LargeStep/DeformErode/JobErode.odb,Step-1,Increment      6: Step Time =,    60.00,"TUBE-1",         20398,  -2.92791E-03,  -4.05307E-03,       1.55000,NA,NA,"",   5.20541E-03,            0.,       1.55044,   205.414E-06,   8.53283E+03
C:/ALETube/PressureUpdate/LargeStep/DeformErode/JobErode.odb,Step-1,Increment      6: Step Time =,    60.00,"TUBE-1",         20339,  -3.50742E-03,  -3.56342E-03,       1.55000,NA,NA,"",   5.20531E-03,            0.,       1.55044,   205.307E-06,   8.52569E+03
C:/ALETube/PressureUpdate/LargeStep/DeformErode/JobErode.odb,Step-1,Increment      6: Step Time =,    60.00,"TUBE-1",         20562,  -2.92791E-03,  -4.05307E-03,        1.5625,NA,NA,"",   5.20573E-03,            0.,       1.56293,   205.730E-06,   8.60123E+03
C:/ALETube/PressureUpdate/LargeStep/DeformErode/JobErode.odb,Step-1,Increment      6: Step Time =,    60.00,"TUBE-1",         20503,  -3.50742E-03,  -3.56342E-03,        1.5625,NA,NA,"",   5.20562E-03,  -433.681E-21,       1.56293,   205.623E-06,   8.59404E+03
C:/ALETube/PressureUpdate/LargeStep/DeformErode/JobErode.odb,Step-1,Increment      6: Step Time =,    60.00,"TUBE-1",         20667,  -3.50742E-03,  -3.56342E-03,       1.57500,NA,NA,"",   5.20594E-03,  -433.681E-21,       1.57542,   205.938E-06,   8.66237E+03
C:/ALETube/PressureUpdate/LargeStep/DeformErode/JobErode.odb,Step-1,Increment      6: Step Time =,    60.00,"TUBE-1",         20726,  -2.92791E-03,  -4.05307E-03,       1.57500,NA,NA,"",   5.20605E-03,            0.,       1.57542,   206.046E-06,   8.66963E+03
C:/ALETube/PressureUpdate/LargeStep/DeformErode/JobErode.odb,Step-1,Increment      6: Step Time =,    60.00,"TUBE-1",         20890,  -2.92791E-03,  -4.05307E-03,       1.58750,NA,NA,"",   5.20636E-03,  -433.681E-21,       1.58791,   206.362E-06,   8.73801E+03
C:/ALETube/PressureUpdate/LargeStep/DeformErode/JobErode.odb,Step-1,Increment      6: Step Time =,    60.00,"TUBE-1",         20831,  -3.50742E-03,  -3.56342E-03,       1.58750,NA,NA,"",   5.20625E-03,   433.681E-21,       1.58791,   206.254E-06,   8.73070E+03
C:/ALETube/PressureUpdate/LargeStep/DeformErode/JobErode.odb,Step-1,Increment      6: Step Time =,    60.00,"TUBE-1",         21054,  -2.92791E-03,  -4.05307E-03,       1.60000,NA,NA,"",   5.20668E-03,            0.,       1.60040,   206.678E-06,   8.80639E+03
C:/ALETube/PressureUpdate/LargeStep/DeformErode/JobErode.odb,Step-1,Increment      6: Step Time =,    60.00,"TUBE-1",         20995,  -3.50742E-03,  -3.56342E-03,       1.60000,NA,NA,"",   5.20657E-03,            0.,       1.60040,   206.569E-06,   8.79902E+03
C:/ALETube/PressureUpdate/LargeStep/DeformErode/JobErode.odb,Step-1,Increment      6: Step Time =,    60.00,"TUBE-1",         21218,  -2.92791E-03,  -4.05307E-03,       1.61250,NA,NA,"",   5.20699E-03,            0.,       1.61289,   206.994E-06,   8.87476E+03
C:/ALETube/PressureUpdate/LargeStep/DeformErode/JobErode.odb,Step-1,Increment      6: Step Time =,    60.00,"TUBE-1",         21159,  -3.50742E-03,  -3.56342E-03,       1.61250,NA,NA,"",   5.20688E-03,            0.,       1.61289,   206.885E-06,   8.86733E+03
C:/ALETube/PressureUpdate/LargeStep/DeformErode/JobErode.odb,Step-1,Increment      6: Step Time =,    60.00,"TUBE-1",         21382,  -2.92791E-03,  -4.05307E-03,         1.625,NA,NA,"",   5.20731E-03,            0.,       1.62537,   207.309E-06,   8.94313E+03
C:/ALETube/PressureUpdate/LargeStep/DeformErode/JobErode.odb,Step-1,Increment      6: Step Time =,    60.00,"TUBE-1",         21323,  -3.50742E-03,  -3.56342E-03,         1.625,NA,NA,"",   5.20720E-03,   433.681E-21,       1.62537,   207.200E-06,   8.93564E+03
C:/ALETube/PressureUpdate/LargeStep/DeformErode/JobErode.odb,Step-1,Increment      6: Step Time =,    60.00,"TUBE-1",         21487,  -3.50742E-03,  -3.56342E-03,       1.63750,NA,NA,"",   5.20752E-03,            0.,       1.63786,   207.516E-06,   9.00394E+03
C:/ALETube/PressureUpdate/LargeStep/DeformErode/JobErode.odb,Step-1,Increment      6: Step Time =,    60.00,"TUBE-1",         21546,  -2.92791E-03,  -4.05307E-03,       1.63750,NA,NA,"",   5.20763E-03,  -433.681E-21,       1.63786,   207.625E-06,   9.01148E+03
C:/ALETube/PressureUpdate/LargeStep/DeformErode/JobErode.odb,Step-1,Increment      6: Step Time =,    60.00,"TUBE-1",         21710,  -2.92791E-03,  -4.05307E-03,       1.65000,NA,NA,"",   5.20794E-03,            0.,       1.65035,   207.941E-06,   9.07984E+03
C:/ALETube/PressureUpdate/LargeStep/DeformErode/JobErode.odb,Step-1,Increment      6: Step Time =,    60.00,"TUBE-1",         21651,  -3.50742E-03,  -3.56342E-03,       1.65000,NA,NA,"",   5.20783E-03,  -433.681E-21,       1.65035,   207.831E-06,   9.07224E+03
C:/ALETube/PressureUpdate/LargeStep/DeformErode/JobErode.odb,Step-1,Increment      6: Step Time =,    60.00,"TUBE-1",         21874,  -2.92791E-03,  -4.05307E-03,       1.66250,NA,NA,"",   5.20826E-03,  -867.362E-21,       1.66284,   208.257E-06,   9.14818E+03
C:/ALETube/PressureUpdate/LargeStep/DeformErode/JobErode.odb,Step-1,Increment      6: Step Time =,    60.00,"TUBE-1",         21815,  -3.50742E-03,  -3.56342E-03,       1.66250,NA,NA,"",   5.20815E-03,            0.,       1.66284,   208.147E-06,   9.14052E+03
C:/ALETube/PressureUpdate/LargeStep/DeformErode/JobErode.odb,Step-1,Increment      6: Step Time =,    60.00,"TUBE-1",         22038,  -2.92791E-03,  -4.05307E-03,       1.67500,NA,NA,"",   5.20857E-03,   433.681E-21,       1.67533,   208.573E-06,   9.21655E+03
C:/ALETube/PressureUpdate/LargeStep/DeformErode/JobErode.odb,Step-1,Increment      6: Step Time =,    60.00,"TUBE-1",         21979,  -3.50742E-03,  -3.56342E-03,       1.67500,NA,NA,"",   5.20846E-03,   433.681E-21,       1.67533,   208.463E-06,   9.20884E+03
C:/ALETube/PressureUpdate/LargeStep/DeformErode/JobErode.odb,Step-1,Increment      6: Step Time =,    60.00,"TUBE-1",         22202,  -2.92791E-03,  -4.05307E-03,        1.6875,NA,NA,"",   5.20889E-03,            0.,       1.68782,   208.888E-06,   9.28477E+03
C:/ALETube/PressureUpdate/LargeStep/DeformErode/JobErode.odb,Step-1,Increment      6: Step Time =,    60.00,"TUBE-1",         22143,  -3.50742E-03,  -3.56342E-03,        1.6875,NA,NA,"",   5.20878E-03,            0.,       1.68782,   208.778E-06,   9.27700E+03
C:/ALETube/PressureUpdate/LargeStep/DeformErode/JobErode.odb,Step-1,Increment      6: Step Time =,    60.00,"TUBE-1",         22307,  -3.50742E-03,  -3.56342E-03,       1.70000,NA,NA,"",   5.20909E-03,            0.,       1.70031,   209.093E-06,   9.34542E+03
C:/ALETube/PressureUpdate/LargeStep/DeformErode/JobErode.odb,Step-1,Increment      6: Step Time =,    60.00,"TUBE-1",         22366,  -2.92791E-03,  -4.05307E-03,       1.70000,NA,NA,"",   5.20920E-03,            0.,       1.70031,   209.204E-06,   9.35324E+03
C:/ALETube/PressureUpdate/LargeStep/DeformErode/JobErode.odb,Step-1,Increment      6: Step Time =,    60.00,"TUBE-1",         22530,  -2.92791E-03,  -4.05307E-03,       1.71250,NA,NA,"",   5.20952E-03,            0.,       1.71279,   209.524E-06,   9.42203E+03
C:/ALETube/PressureUpdate/LargeStep/DeformErode/JobErode.odb,Step-1,Increment      6: Step Time =,    60.00,"TUBE-1",         22471,  -3.50742E-03,  -3.56342E-03,       1.71250,NA,NA,"",   5.20941E-03,            0.,       1.71279,   209.413E-06,   9.41415E+03
C:/ALETube/PressureUpdate/LargeStep/DeformErode/JobErode.odb,Step-1,Increment      6: Step Time =,    60.00,"TUBE-1",         22694,  -2.92791E-03,  -4.05307E-03,       1.72500,NA,NA,"",   5.20983E-03,  -433.681E-21,       1.72528,   209.827E-06,   9.48817E+03
C:/ALETube/PressureUpdate/LargeStep/DeformErode/JobErode.odb,Step-1,Increment      6: Step Time =,    60.00,"TUBE-1",         22635,  -3.50742E-03,  -3.56342E-03,       1.72500,NA,NA,"",   5.20972E-03,            0.,       1.72528,   209.715E-06,   9.48023E+03
C:/ALETube/PressureUpdate/LargeStep/DeformErode/JobErode.odb,Step-1,Increment      6: Step Time =,    60.00,"TUBE-1",         22858,  -2.92791E-03,  -4.05307E-03,       1.73750,NA,NA,"",   5.21007E-03,   433.681E-21,       1.73777,   210.074E-06,   9.54206E+03
C:/ALETube/PressureUpdate/LargeStep/DeformErode/JobErode.odb,Step-1,Increment      6: Step Time =,    60.00,"TUBE-1",         22799,  -3.50742E-03,  -3.56342E-03,       1.73750,NA,NA,"",   5.20996E-03,  -163.327E-12,       1.73777,   209.962E-06,   9.53409E+03
C:/ALETube/PressureUpdate/LargeStep/DeformErode/JobErode.odb,Step-1,Increment      6: Step Time =,    60.00,"TUBE-1",         23022,  -2.92791E-03,  -4.05307E-03,          1.75,NA,NA,"",   5.21040E-03,  -433.681E-21,       1.75026,   210.396E-06,   9.61218E+03
C:/ALETube/PressureUpdate/LargeStep/DeformErode/JobErode.odb,Step-1,Increment      6: Step Time =,    60.00,"TUBE-1",         22963,  -3.50742E-03,  -3.56342E-03,          1.75,NA,NA,"",   5.21028E-03,            0.,       1.75026,   210.284E-06,   9.60415E+03
C:/ALETube/PressureUpdate/LargeStep/DeformErode/JobErode.odb,Step-1,Increment      6: Step Time =,    60.00,"TUBE-1",         23127,  -3.50742E-03,  -3.56342E-03,       1.76250,NA,NA,"",   5.21060E-03,            0.,       1.76275,   210.602E-06,   9.67238E+03
C:/ALETube/PressureUpdate/LargeStep/DeformErode/JobErode.odb,Step-1,Increment      6: Step Time =,    60.00,"TUBE-1",         23186,  -2.92791E-03,  -4.05307E-03,       1.76250,NA,NA,"",   5.21071E-03,            0.,       1.76275,   210.715E-06,   9.68046E+03
C:/ALETube/PressureUpdate/LargeStep/DeformErode/JobErode.odb,Step-1,Increment      6: Step Time =,    60.00,"TUBE-1",         23350,  -2.92791E-03,  -4.05307E-03,       1.77500,NA,NA,"",   5.21103E-03,   433.681E-21,       1.77523,   211.031E-06,   9.74874E+03
C:/ALETube/PressureUpdate/LargeStep/DeformErode/JobErode.odb,Step-1,Increment      6: Step Time =,    60.00,"TUBE-1",         23291,  -3.50742E-03,  -3.56342E-03,       1.77500,NA,NA,"",   5.21092E-03,            0.,       1.77523,   210.918E-06,   9.74060E+03
C:/ALETube/PressureUpdate/LargeStep/DeformErode/JobErode.odb,Step-1,Increment      6: Step Time =,    60.00,"TUBE-1",         23514,  -2.92791E-03,  -4.05307E-03,       1.78750,NA,NA,"",   5.21135E-03,            0.,       1.78772,   211.347E-06,   9.81689E+03
C:/ALETube/PressureUpdate/LargeStep/DeformErode/JobErode.odb,Step-1,Increment      6: Step Time =,    60.00,"TUBE-1",         23455,  -3.50742E-03,  -3.56342E-03,       1.78750,NA,NA,"",   5.21123E-03,   433.681E-21,       1.78772,   211.234E-06,   9.80868E+03
C:/ALETube/PressureUpdate/LargeStep/DeformErode/JobErode.odb,Step-1,Increment      6: Step Time =,    60.00,"TUBE-1",         23678,  -2.92791E-03,  -4.05307E-03,       1.80000,NA,NA,"",   5.21166E-03,  -433.681E-21,       1.80021,   211.664E-06,   9.88517E+03
C:/ALETube/PressureUpdate/LargeStep/DeformErode/JobErode.odb,Step-1,Increment      6: Step Time =,    60.00,"TUBE-1",         23619,  -3.50742E-03,  -3.56342E-03,       1.80000,NA,NA,"",   5.21155E-03,            0.,       1.80021,   211.550E-06,   9.87690E+03
C:/ALETube/PressureUpdate/LargeStep/DeformErode/JobErode.odb,Step-1,Increment      6: Step Time =,    60.00,"TUBE-1",         23842,  -2.92791E-03,  -4.05307E-03,        1.8125,NA,NA,"",   5.21198E-03,  -433.681E-21,       1.81270,   211.980E-06,   9.95339E+03
C:/ALETube/PressureUpdate/LargeStep/DeformErode/JobErode.odb,Step-1,Increment      6: Step Time =,    60.00,"TUBE-1",         23783,  -3.50742E-03,  -3.56342E-03,        1.8125,NA,NA,"",   5.21187E-03,   433.681E-21,       1.81270,   211.866E-06,   9.94506E+03
C:/ALETube/PressureUpdate/LargeStep/DeformErode/JobErode.odb,Step-1,Increment      6: Step Time =,    60.00,"TUBE-1",         23947,  -3.50742E-03,  -3.56342E-03,       1.82500,NA,NA,"",   5.21218E-03,            0.,       1.82518,   212.181E-06,   10.0133E+03
C:/ALETube/PressureUpdate/LargeStep/DeformErode/JobErode.odb,Step-1,Increment      6: Step Time =,    60.00,"TUBE-1",         24006,  -2.92791E-03,  -4.05307E-03,       1.82500,NA,NA,"",   5.21230E-03,            0.,       1.82518,   212.296E-06,   10.0217E+03
C:/ALETube/PressureUpdate/LargeStep/DeformErode/JobErode.odb,Step-1,Increment      6: Step Time =,    60.00,"TUBE-1",         24170,  -2.92791E-03,  -4.05307E-03,       1.83750,NA,NA,"",   5.21261E-03,  -433.681E-21,       1.83767,   212.612E-06,   10.0899E+03
C:/ALETube/PressureUpdate/LargeStep/DeformErode/JobErode.odb,Step-1,Increment      6: Step Time =,    60.00,"TUBE-1",         24111,  -3.50742E-03,  -3.56342E-03,       1.83750,NA,NA,"",   5.21250E-03,            0.,       1.83767,   212.497E-06,   10.0815E+03
C:/ALETube/PressureUpdate/LargeStep/DeformErode/JobErode.odb,Step-1,Increment      6: Step Time =,    60.00,"TUBE-1",         24334,  -2.92791E-03,  -4.05307E-03,       1.85000,NA,NA,"",   5.21293E-03,            0.,       1.85016,   212.927E-06,   10.1582E+03
C:/ALETube/PressureUpdate/LargeStep/DeformErode/JobErode.odb,Step-1,Increment      6: Step Time =,    60.00,"TUBE-1",         24275,  -3.50742E-03,  -3.56342E-03,       1.85000,NA,NA,"",   5.21281E-03,            0.,       1.85016,   212.812E-06,   10.1497E+03
C:/ALETube/PressureUpdate/LargeStep/DeformErode/JobErode.odb,Step-1,Increment      6: Step Time =,    60.00,"TUBE-1",         24498,  -2.92791E-03,  -4.05307E-03,       1.86250,NA,NA,"",   5.21324E-03,  -433.681E-21,       1.86265,   213.243E-06,   10.2264E+03
C:/ALETube/PressureUpdate/LargeStep/DeformErode/JobErode.odb,Step-1,Increment      6: Step Time =,    60.00,"TUBE-1",         24439,  -3.50742E-03,  -3.56342E-03,       1.86250,NA,NA,"",   5.21313E-03,            0.,       1.86265,   213.128E-06,   10.2179E+03
C:/ALETube/PressureUpdate/LargeStep/DeformErode/JobErode.odb,Step-1,Increment      6: Step Time =,    60.00,"TUBE-1",         24662,  -2.92791E-03,  -4.05307E-03,         1.875,NA,NA,"",   5.21356E-03,            0.,       1.87513,   213.559E-06,   10.2947E+03
C:/ALETube/PressureUpdate/LargeStep/DeformErode/JobErode.odb,Step-1,Increment      6: Step Time =,    60.00,"TUBE-1",         24603,  -3.50742E-03,  -3.56342E-03,         1.875,NA,NA,"",   5.21344E-03,   433.681E-21,       1.87513,   213.443E-06,   10.2860E+03
C:/ALETube/PressureUpdate/LargeStep/DeformErode/JobErode.odb,Step-1,Increment      6: Step Time =,    60.00,"TUBE-1",         24767,  -3.50742E-03,  -3.56342E-03,       1.88750,NA,NA,"",   5.21376E-03,            0.,       1.88762,   213.758E-06,   10.3542E+03
C:/ALETube/PressureUpdate/LargeStep/DeformErode/JobErode.odb,Step-1,Increment      6: Step Time =,    60.00,"TUBE-1",         24826,  -2.92791E-03,  -4.05307E-03,       1.88750,NA,NA,"",   5.21387E-03,            0.,       1.88762,   213.875E-06,   10.3629E+03
C:/ALETube/PressureUpdate/LargeStep/DeformErode/JobErode.odb,Step-1,Increment      6: Step Time =,    60.00,"TUBE-1",         24990,  -2.92791E-03,  -4.05307E-03,       1.90000,NA,NA,"",   5.21419E-03,            0.,       1.90011,   214.190E-06,   10.4311E+03
C:/ALETube/PressureUpdate/LargeStep/DeformErode/JobErode.odb,Step-1,Increment      6: Step Time =,    60.00,"TUBE-1",         24931,  -3.50742E-03,  -3.56342E-03,       1.90000,NA,NA,"",   5.21407E-03,            0.,       1.90011,   214.074E-06,   10.4224E+03
C:/ALETube/PressureUpdate/LargeStep/DeformErode/JobErode.odb,Step-1,Increment      6: Step Time =,    60.00,"TUBE-1",         25154,  -2.92791E-03,  -4.05307E-03,       1.91250,NA,NA,"",   5.21451E-03,            0.,       1.91259,   214.506E-06,   10.4993E+03
C:/ALETube/PressureUpdate/LargeStep/DeformErode/JobErode.odb,Step-1,Increment      6: Step Time =,    60.00,"TUBE-1",         25095,  -3.50742E-03,  -3.56342E-03,       1.91250,NA,NA,"",   5.21439E-03,            0.,       1.91259,   214.389E-06,   10.4905E+03
C:/ALETube/PressureUpdate/LargeStep/DeformErode/JobErode.odb,Step-1,Increment      6: Step Time =,    60.00,"TUBE-1",         25318,  -2.92791E-03,  -4.05307E-03,       1.92500,NA,NA,"",   5.21482E-03,            0.,       1.92508,   214.822E-06,   10.5676E+03
C:/ALETube/PressureUpdate/LargeStep/DeformErode/JobErode.odb,Step-1,Increment      6: Step Time =,    60.00,"TUBE-1",         25259,  -3.50742E-03,  -3.56342E-03,       1.92500,NA,NA,"",   5.21470E-03,            0.,       1.92508,   214.705E-06,   10.5587E+03
C:/ALETube/PressureUpdate/LargeStep/DeformErode/JobErode.odb,Step-1,Increment      6: Step Time =,    60.00,"TUBE-1",         25482,  -2.92791E-03,  -4.05307E-03,        1.9375,NA,NA,"",   5.21514E-03,            0.,       1.93757,   215.137E-06,   10.6356E+03
C:/ALETube/PressureUpdate/LargeStep/DeformErode/JobErode.odb,Step-1,Increment      6: Step Time =,    60.00,"TUBE-1",         25423,  -3.50742E-03,  -3.56342E-03,        1.9375,NA,NA,"",   5.21502E-03,            0.,       1.93757,   215.020E-06,   10.6268E+03
C:/ALETube/PressureUpdate/LargeStep/DeformErode/JobErode.odb,Step-1,Increment      6: Step Time =,    60.00,"TUBE-1",         25587,  -3.50742E-03,  -3.56342E-03,       1.95000,NA,NA,"",   5.21534E-03,   433.681E-21,       1.95005,   215.336E-06,   10.6952E+03
C:/ALETube/PressureUpdate/LargeStep/DeformErode/JobErode.odb,Step-1,Increment      6: Step Time =,    60.00,"TUBE-1",         25646,  -2.92791E-03,  -4.05307E-03,       1.95000,NA,NA,"",   5.21545E-03,            0.,       1.95005,   215.454E-06,   10.7042E+03
C:/ALETube/PressureUpdate/LargeStep/DeformErode/JobErode.odb,Step-1,Increment      6: Step Time =,    60.00,"TUBE-1",         25810,  -2.92791E-03,  -4.05307E-03,       1.96250,NA,NA,"",   5.21577E-03,  -433.681E-21,       1.96254,   215.768E-06,   10.7714E+03
C:/ALETube/PressureUpdate/LargeStep/DeformErode/JobErode.odb,Step-1,Increment      6: Step Time =,    60.00,"TUBE-1",         25751,  -3.50742E-03,  -3.56342E-03,       1.96250,NA,NA,"",   5.21565E-03,            0.,       1.96254,   215.650E-06,   10.7626E+03
C:/ALETube/PressureUpdate/LargeStep/DeformErode/JobErode.odb,Step-1,Increment      6: Step Time =,    60.00,"TUBE-1",         25974,  -2.92791E-03,  -4.05307E-03,       1.97500,NA,NA,"",   5.21608E-03,            0.,       1.97503,   216.083E-06,   10.8411E+03
C:/ALETube/PressureUpdate/LargeStep/DeformErode/JobErode.odb,Step-1,Increment      6: Step Time =,    60.00,"TUBE-1",         25915,  -3.50742E-03,  -3.56342E-03,       1.97500,NA,NA,"",   5.21596E-03,            0.,       1.97503,   215.964E-06,   10.8317E+03
C:/ALETube/PressureUpdate/LargeStep/DeformErode/JobErode.odb,Step-1,Increment      6: Step Time =,    60.00,"TUBE-1",         26138,  -2.92791E-03,  -4.05307E-03,       1.98750,NA,NA,"",   5.21641E-03,            0.,       1.98751,   216.412E-06,   10.9076E+03
C:/ALETube/PressureUpdate/LargeStep/DeformErode/JobErode.odb,Step-1,Increment      6: Step Time =,    60.00,"TUBE-1",         26079,  -3.50742E-03,  -3.56342E-03,       1.98750,NA,NA,"",   5.21629E-03,            0.,       1.98751,   216.295E-06,   10.9007E+03
C:/ALETube/PressureUpdate/LargeStep/DeformErode/JobErode.odb,Step-1,Increment      6: Step Time =,    60.00,"TUBE-1",         26302,  -2.92791E-03,  -4.05307E-03,            2.,NA,NA,"",   5.21640E-03,            0.,            2.,   216.397E-06,   10.9259E+03
C:/ALETube/PressureUpdate/LargeStep/DeformErode/JobErode.odb,Step-1,Increment      6: Step Time =,    60.00,"TUBE-1",         26243,  -3.50742E-03,  -3.56342E-03,            2.,NA,NA,"",   5.21634E-03,            0.,            2.,   216.340E-06,   10.9440E+03
C:/ALETube/PressureUpdate/LargeStep/DeformErode/JobErode.odb,Step-1,Increment      7: Step Time =,    70.00,"TUBE-1",            62,  -2.92791E-03,  -4.05307E-03,            0.,NA,NA,"",   5.25070E-03,  -433.681E-21,   1.60374E-03,   250.697E-06,       14.1626
C:/ALETube/PressureUpdate/LargeStep/DeformErode/JobErode.odb,Step-1,Increment      7: Step Time =,    70.00,"TUBE-1",             3,  -3.50742E-03,  -3.56342E-03,            0.,NA,NA,"",   5.25066E-03,            0.,   1.60373E-03,   250.664E-06,       14.0731
C:/ALETube/PressureUpdate/LargeStep/DeformErode/JobErode.odb,Step-1,Increment      7: Step Time =,    70.00,"TUBE-1",           226,  -2.92791E-03,  -4.05307E-03,   12.5000E-03,NA,NA,"",   5.24459E-03,            0.,   13.8679E-03,   244.586E-06,       85.3962
C:/ALETube/PressureUpdate/LargeStep/DeformErode/JobErode.odb,Step-1,Increment      7: Step Time =,    70.00,"TUBE-1",           167,  -3.50742E-03,  -3.56342E-03,   12.5000E-03,NA,NA,"",   5.24451E-03,            0.,   13.8682E-03,   244.510E-06,       85.4267
C:/ALETube/PressureUpdate/LargeStep/DeformErode/JobErode.odb,Step-1,Increment      7: Step Time =,    70.00,"TUBE-1",           331,  -3.50742E-03,  -3.56342E-03,   25.0000E-03,NA,NA,"",   5.24488E-03,            0.,   26.3664E-03,   244.876E-06,       169.495
C:/ALETube/PressureUpdate/LargeStep/DeformErode/JobErode.odb,Step-1,Increment      7: Step Time =,    70.00,"TUBE-1",           390,  -2.92791E-03,  -4.05307E-03,   25.0000E-03,NA,NA,"",   5.24495E-03,            0.,   26.3664E-03,   244.953E-06,       169.545
C:/ALETube/PressureUpdate/LargeStep/DeformErode/JobErode.odb,Step-1,Increment      7: Step Time =,    70.00,"TUBE-1",           554,  -2.92791E-03,  -4.05307E-03,   37.5000E-03,NA,NA,"",   5.24533E-03,            0.,   38.8662E-03,   245.325E-06,       252.768
C:/ALETube/PressureUpdate/LargeStep/DeformErode/JobErode.odb,Step-1,Increment      7: Step Time =,    70.00,"TUBE-1",           495,  -3.50742E-03,  -3.56342E-03,   37.5000E-03,NA,NA,"",   5.24525E-03,  -433.681E-21,   38.8662E-03,   245.248E-06,       252.688
C:/ALETube/PressureUpdate/LargeStep/DeformErode/JobErode.odb,Step-1,Increment      7: Step Time =,    70.00,"TUBE-1",           718,  -2.92791E-03,  -4.05307E-03,   50.0000E-03,NA,NA,"",   5.24571E-03,            0.,   51.3658E-03,   245.705E-06,       337.956
C:/ALETube/PressureUpdate/LargeStep/DeformErode/JobErode.odb,Step-1,Increment      7: Step Time =,    70.00,"TUBE-1",           659,  -3.50742E-03,  -3.56342E-03,   50.0000E-03,NA,NA,"",   5.24563E-03,            0.,   51.3658E-03,   245.627E-06,       337.845
C:/ALETube/PressureUpdate/LargeStep/DeformErode/JobErode.odb,Step-1,Increment      7: Step Time =,    70.00,"TUBE-1",           823,  -3.50742E-03,  -3.56342E-03,      62.5E-03,NA,NA,"",   5.24600E-03,            0.,   63.8653E-03,   246.004E-06,       422.430
C:/ALETube/PressureUpdate/LargeStep/DeformErode/JobErode.odb,Step-1,Increment      7: Step Time =,    70.00,"TUBE-1",           882,  -2.92791E-03,  -4.05307E-03,      62.5E-03,NA,NA,"",   5.24608E-03,  -433.681E-21,   63.8653E-03,   246.082E-06,       422.567
C:/ALETube/PressureUpdate/LargeStep/DeformErode/JobErode.odb,Step-1,Increment      7: Step Time =,    70.00,"TUBE-1",          1046,  -2.92791E-03,  -4.05307E-03,   75.0000E-03,NA,NA,"",   5.24646E-03,            0.,   76.3647E-03,   246.460E-06,       507.187
C:/ALETube/PressureUpdate/LargeStep/DeformErode/JobErode.odb,Step-1,Increment      7: Step Time =,    70.00,"TUBE-1",           987,  -3.50742E-03,  -3.56342E-03,   75.0000E-03,NA,NA,"",   5.24638E-03,            0.,   76.3647E-03,   246.381E-06,       507.022
C:/ALETube/PressureUpdate/LargeStep/DeformErode/JobErode.odb,Step-1,Increment      7: Step Time =,    70.00,"TUBE-1",          1210,  -2.92791E-03,  -4.05307E-03,   87.5000E-03,NA,NA,"",   5.24684E-03,            0.,   88.8640E-03,   246.837E-06,       591.841
C:/ALETube/PressureUpdate/LargeStep/DeformErode/JobErode.odb,Step-1,Increment      7: Step Time =,    70.00,"TUBE-1",          1151,  -3.50742E-03,  -3.56342E-03,   87.5000E-03,NA,NA,"",   5.24676E-03,            0.,   88.8640E-03,   246.757E-06,       591.649
C:/ALETube/PressureUpdate/LargeStep/DeformErode/JobErode.odb,Step-1,Increment      7: Step Time =,    70.00,"TUBE-1",          1374,  -2.92791E-03,  -4.05307E-03,   100.000E-03,NA,NA,"",   5.24721E-03,            0.,   101.363E-03,   247.215E-06,       676.464
C:/ALETube/PressureUpdate/LargeStep/DeformErode/JobErode.odb,Step-1,Increment      7: Step Time =,    70.00,"TUBE-1",          1315,  -3.50742E-03,  -3.56342E-03,   100.000E-03,NA,NA,"",   5.24713E-03,            0.,   101.363E-03,   247.134E-06,       676.244
C:/ALETube/PressureUpdate/LargeStep/DeformErode/JobErode.odb,Step-1,Increment      7: Step Time =,    70.00,"TUBE-1",          1538,  -2.92791E-03,  -4.05307E-03,   112.500E-03,NA,NA,"",   5.24759E-03,            0.,   113.862E-03,   247.592E-06,       761.082
C:/ALETube/PressureUpdate/LargeStep/DeformErode/JobErode.odb,Step-1,Increment      7: Step Time =,    70.00,"TUBE-1",          1479,  -3.50742E-03,  -3.56342E-03,   112.500E-03,NA,NA,"",   5.24751E-03,   433.681E-21,   113.862E-03,   247.511E-06,       760.834
C:/ALETube/PressureUpdate/LargeStep/DeformErode/JobErode.odb,Step-1,Increment      7: Step Time =,    70.00,"TUBE-1",          1643,  -3.50742E-03,  -3.56342E-03,      125.E-03,NA,NA,"",   5.24789E-03,            0.,   126.361E-03,   247.888E-06,       845.411
C:/ALETube/PressureUpdate/LargeStep/DeformErode/JobErode.odb,Step-1,Increment      7: Step Time =,    70.00,"TUBE-1",          1702,  -2.92791E-03,  -4.05307E-03,      125.E-03,NA,NA,"",   5.24797E-03,  -433.681E-21,   126.361E-03,   247.969E-06,       845.685
C:/ALETube/PressureUpdate/LargeStep/DeformErode/JobErode.odb,Step-1,Increment      7: Step Time =,    70.00,"TUBE-1",          1866,  -2.92791E-03,  -4.05307E-03,   137.500E-03,NA,NA,"",   5.24835E-03,            0.,   138.860E-03,   248.347E-06,       930.280
C:/ALETube/PressureUpdate/LargeStep/DeformErode/JobErode.odb,Step-1,Increment      7: Step Time =,    70.00,"TUBE-1",          1807,  -3.50742E-03,  -3.56342E-03,   137.500E-03,NA,NA,"",   5.24826E-03,            0.,   138.860E-03,   248.264E-06,       929.977
C:/ALETube/PressureUpdate/LargeStep/DeformErode/JobErode.odb,Step-1,Increment      7: Step Time =,    70.00,"TUBE-1",          2030,  -2.92791E-03,  -4.05307E-03,   150.000E-03,NA,NA,"",   5.24872E-03,            0.,   151.359E-03,   248.724E-06,   1.01486E+03
C:/ALETube/PressureUpdate/LargeStep/DeformErode/JobErode.odb,Step-1,Increment      7: Step Time =,    70.00,"TUBE-1",          1971,  -3.50742E-03,  -3.56342E-03,   150.000E-03,NA,NA,"",   5.24864E-03,            0.,   151.359E-03,   248.641E-06,   1.01453E+03
C:/ALETube/PressureUpdate/LargeStep/DeformErode/JobErode.odb,Step-1,Increment      7: Step Time =,    70.00,"TUBE-1",          2194,  -2.92791E-03,  -4.05307E-03,   162.500E-03,NA,NA,"",   5.24910E-03,            0.,   163.858E-03,   249.101E-06,   1.09943E+03
C:/ALETube/PressureUpdate/LargeStep/DeformErode/JobErode.odb,Step-1,Increment      7: Step Time =,    70.00,"TUBE-1",          2135,  -3.50742E-03,  -3.56342E-03,   162.500E-03,NA,NA,"",   5.24902E-03,            0.,   163.858E-03,   249.018E-06,   1.09907E+03
C:/ALETube/PressureUpdate/LargeStep/DeformErode/JobErode.odb,Step-1,Increment      7: Step Time =,    70.00,"TUBE-1",          2358,  -2.92791E-03,  -4.05307E-03,   175.000E-03,NA,NA,"",   5.24948E-03,   433.681E-21,   176.356E-03,   249.478E-06,   1.18399E+03
C:/ALETube/PressureUpdate/LargeStep/DeformErode/JobErode.odb,Step-1,Increment      7: Step Time =,    70.00,"TUBE-1",          2299,  -3.50742E-03,  -3.56342E-03,   175.000E-03,NA,NA,"",   5.24939E-03,  -433.681E-21,   176.356E-03,   249.394E-06,   1.18361E+03
C:/ALETube/PressureUpdate/LargeStep/DeformErode/JobErode.odb,Step-1,Increment      7: Step Time =,    70.00,"TUBE-1",          2463,  -3.50742E-03,  -3.56342E-03,     187.5E-03,NA,NA,"",   5.24977E-03,  -433.681E-21,   188.855E-03,   249.771E-06,   1.26813E+03
C:/ALETube/PressureUpdate/LargeStep/DeformErode/JobErode.odb,Step-1,Increment      7: Step Time =,    70.00,"TUBE-1",          2522,  -2.92791E-03,  -4.05307E-03,     187.5E-03,NA,NA,"",   5.24986E-03,   433.681E-21,   188.855E-03,   249.856E-06,   1.26854E+03
C:/ALETube/PressureUpdate/LargeStep/DeformErode/JobErode.odb,Step-1,Increment      7: Step Time =,    70.00,"TUBE-1",          2686,  -2.92791E-03,  -4.05307E-03,   200.000E-03,NA,NA,"",   5.25023E-03,            0.,   201.353E-03,   250.233E-06,   1.35307E+03
C:/ALETube/PressureUpdate/LargeStep/DeformErode/JobErode.odb,Step-1,Increment      7: Step Time =,    70.00,"TUBE-1",          2627,  -3.50742E-03,  -3.56342E-03,   200.000E-03,NA,NA,"",   5.25015E-03,   433.681E-21,   201.353E-03,   250.148E-06,   1.35263E+03
C:/ALETube/PressureUpdate/LargeStep/DeformErode/JobErode.odb,Step-1,Increment      7: Step Time =,    70.00,"TUBE-1",          2850,  -2.92791E-03,  -4.05307E-03,   212.500E-03,NA,NA,"",   5.25061E-03,            0.,   213.851E-03,   250.610E-06,   1.43760E+03
C:/ALETube/PressureUpdate/LargeStep/DeformErode/JobErode.odb,Step-1,Increment      7: Step Time =,    70.00,"TUBE-1",          2791,  -3.50742E-03,  -3.56342E-03,   212.500E-03,NA,NA,"",   5.25052E-03,            0.,   213.851E-03,   250.524E-06,   1.43713E+03
C:/ALETube/PressureUpdate/LargeStep/DeformErode/JobErode.odb,Step-1,Increment      7: Step Time =,    70.00,"TUBE-1",          3014,  -2.92791E-03,  -4.05307E-03,   225.000E-03,NA,NA,"",   5.25099E-03,  -433.681E-21,   226.349E-03,   250.987E-06,   1.52211E+03
C:/ALETube/PressureUpdate/LargeStep/DeformErode/JobErode.odb,Step-1,Increment      7: Step Time =,    70.00,"TUBE-1",          2955,  -3.50742E-03,  -3.56342E-03,   225.000E-03,NA,NA,"",   5.25090E-03,            0.,   226.349E-03,   250.901E-06,   1.52162E+03
C:/ALETube/PressureUpdate/LargeStep/DeformErode/JobErode.odb,Step-1,Increment      7: Step Time =,    70.00,"TUBE-1",          3178,  -2.92791E-03,  -4.05307E-03,   237.500E-03,NA,NA,"",   5.25136E-03,            0.,   238.847E-03,   251.365E-06,   1.60661E+03
C:/ALETube/PressureUpdate/LargeStep/DeformErode/JobErode.odb,Step-1,Increment      7: Step Time =,    70.00,"TUBE-1",          3119,  -3.50742E-03,  -3.56342E-03,   237.500E-03,NA,NA,"",   5.25128E-03,            0.,   238.847E-03,   251.277E-06,   1.60609E+03
C:/ALETube/PressureUpdate/LargeStep/DeformErode/JobErode.odb,Step-1,Increment      7: Step Time =,    70.00,"TUBE-1",          3283,  -3.50742E-03,  -3.56342E-03,      250.E-03,NA,NA,"",   5.25165E-03,  -433.681E-21,   251.345E-03,   251.654E-06,   1.69055E+03
C:/ALETube/PressureUpdate/LargeStep/DeformErode/JobErode.odb,Step-1,Increment      7: Step Time =,    70.00,"TUBE-1",          3342,  -2.92791E-03,  -4.05307E-03,      250.E-03,NA,NA,"",   5.25174E-03,            0.,   251.345E-03,   251.742E-06,   1.69110E+03
C:/ALETube/PressureUpdate/LargeStep/DeformErode/JobErode.odb,Step-1,Increment      7: Step Time =,    70.00,"TUBE-1",          3506,  -2.92791E-03,  -4.05307E-03,   262.500E-03,NA,NA,"",   5.25212E-03,            0.,   263.843E-03,   252.119E-06,   1.77558E+03
C:/ALETube/PressureUpdate/LargeStep/DeformErode/JobErode.odb,Step-1,Increment      7: Step Time =,    70.00,"TUBE-1",          3447,  -3.50742E-03,  -3.56342E-03,   262.500E-03,NA,NA,"",   5.25203E-03,            0.,   263.843E-03,   252.031E-06,   1.77500E+03
C:/ALETube/PressureUpdate/LargeStep/DeformErode/JobErode.odb,Step-1,Increment      7: Step Time =,    70.00,"TUBE-1",          3670,  -2.92791E-03,  -4.05307E-03,   275.000E-03,NA,NA,"",   5.25250E-03,            0.,   276.341E-03,   252.496E-06,   1.86005E+03
C:/ALETube/PressureUpdate/LargeStep/DeformErode/JobErode.odb,Step-1,Increment      7: Step Time =,    70.00,"TUBE-1",          3611,  -3.50742E-03,  -3.56342E-03,   275.000E-03,NA,NA,"",   5.25241E-03,  -433.681E-21,   276.341E-03,   252.407E-06,   1.85944E+03
C:/ALETube/PressureUpdate/LargeStep/DeformErode/JobErode.odb,Step-1,Increment      7: Step Time =,    70.00,"TUBE-1",          3834,  -2.92791E-03,  -4.05307E-03,   287.500E-03,NA,NA,"",   5.25287E-03,            0.,   288.838E-03,   252.873E-06,   1.94450E+03
C:/ALETube/PressureUpdate/LargeStep/DeformErode/JobErode.odb,Step-1,Increment      7: Step Time =,    70.00,"TUBE-1",          3775,  -3.50742E-03,  -3.56342E-03,   287.500E-03,NA,NA,"",   5.25278E-03,            0.,   288.838E-03,   252.784E-06,   1.94387E+03
C:/ALETube/PressureUpdate/LargeStep/DeformErode/JobErode.odb,Step-1,Increment      7: Step Time =,    70.00,"TUBE-1",          3998,  -2.92791E-03,  -4.05307E-03,   300.000E-03,NA,NA,"",   5.25325E-03,            0.,   301.336E-03,   253.250E-06,   2.02895E+03
C:/ALETube/PressureUpdate/LargeStep/DeformErode/JobErode.odb,Step-1,Increment      7: Step Time =,    70.00,"TUBE-1",          3939,  -3.50742E-03,  -3.56342E-03,   300.000E-03,NA,NA,"",   5.25316E-03,            0.,   301.336E-03,   253.160E-06,   2.02828E+03
C:/ALETube/PressureUpdate/LargeStep/DeformErode/JobErode.odb,Step-1,Increment      7: Step Time =,    70.00,"TUBE-1",          4103,  -3.50742E-03,  -3.56342E-03,     312.5E-03,NA,NA,"",   5.25354E-03,  -433.681E-21,   313.833E-03,   253.537E-06,   2.11269E+03
C:/ALETube/PressureUpdate/LargeStep/DeformErode/JobErode.odb,Step-1,Increment      7: Step Time =,    70.00,"TUBE-1",          4162,  -2.92791E-03,  -4.05307E-03,     312.5E-03,NA,NA,"",   5.25363E-03,            0.,   313.833E-03,   253.627E-06,   2.11338E+03
C:/ALETube/PressureUpdate/LargeStep/DeformErode/JobErode.odb,Step-1,Increment      7: Step Time =,    70.00,"TUBE-1",          4326,  -2.92791E-03,  -4.05307E-03,   325.000E-03,NA,NA,"",   5.25400E-03,            0.,   326.330E-03,   254.005E-06,   2.19780E+03
C:/ALETube/PressureUpdate/LargeStep/DeformErode/JobErode.odb,Step-1,Increment      7: Step Time =,    70.00,"TUBE-1",          4267,  -3.50742E-03,  -3.56342E-03,   325.000E-03,NA,NA,"",   5.25391E-03,  -165.935E-12,   326.330E-03,   253.913E-06,   2.19708E+03
C:/ALETube/PressureUpdate/LargeStep/DeformErode/JobErode.odb,Step-1,Increment      7: Step Time =,    70.00,"TUBE-1",          4490,  -2.92791E-03,  -4.05307E-03,   337.500E-03,NA,NA,"",   5.25438E-03,  -433.681E-21,   338.827E-03,   254.382E-06,   2.28221E+03
C:/ALETube/PressureUpdate/LargeStep/DeformErode/JobErode.odb,Step-1,Increment      7: Step Time =,    70.00,"TUBE-1",          4431,  -3.50742E-03,  -3.56342E-03,   337.500E-03,NA,NA,"",   5.25429E-03,            0.,   338.827E-03,   254.289E-06,   2.28146E+03
C:/ALETube/PressureUpdate/LargeStep/DeformErode/JobErode.odb,Step-1,Increment      7: Step Time =,    70.00,"TUBE-1",          4654,  -2.92791E-03,  -4.05307E-03,   350.000E-03,NA,NA,"",   5.25476E-03,            0.,   351.324E-03,   254.759E-06,   2.36660E+03
C:/ALETube/PressureUpdate/LargeStep/DeformErode/JobErode.odb,Step-1,Increment      7: Step Time =,    70.00,"TUBE-1",          4595,  -3.50742E-03,  -3.56342E-03,   350.000E-03,NA,NA,"",   5.25467E-03,            0.,   351.324E-03,   254.666E-06,   2.36583E+03
C:/ALETube/PressureUpdate/LargeStep/DeformErode/JobErode.odb,Step-1,Increment      7: Step Time =,    70.00,"TUBE-1",          4818,  -2.92791E-03,  -4.05307E-03,   362.500E-03,NA,NA,"",   5.25514E-03,            0.,   363.821E-03,   255.136E-06,   2.45099E+03
C:/ALETube/PressureUpdate/LargeStep/DeformErode/JobErode.odb,Step-1,Increment      7: Step Time =,    70.00,"TUBE-1",          4759,  -3.50742E-03,  -3.56342E-03,   362.500E-03,NA,NA,"",   5.25504E-03,   433.681E-21,   363.821E-03,   255.042E-06,   2.45019E+03
C:/ALETube/PressureUpdate/LargeStep/DeformErode/JobErode.odb,Step-1,Increment      7: Step Time =,    70.00,"TUBE-1",          4923,  -3.50742E-03,  -3.56342E-03,      375.E-03,NA,NA,"",   5.25542E-03,            0.,   376.318E-03,   255.419E-06,   2.53454E+03
C:/ALETube/PressureUpdate/LargeStep/DeformErode/JobErode.odb,Step-1,Increment      7: Step Time =,    70.00,"TUBE-1",          4982,  -2.92791E-03,  -4.05307E-03,      375.E-03,NA,NA,"",   5.25551E-03,            0.,   376.318E-03,   255.513E-06,   2.53536E+03
C:/ALETube/PressureUpdate/LargeStep/DeformErode/JobErode.odb,Step-1,Increment      7: Step Time =,    70.00,"TUBE-1",          5146,  -2.92791E-03,  -4.05307E-03,   387.500E-03,NA,NA,"",   5.25589E-03,  -433.681E-21,   388.815E-03,   255.890E-06,   2.61973E+03
C:/ALETube/PressureUpdate/LargeStep/DeformErode/JobErode.odb,Step-1,Increment      7: Step Time =,    70.00,"TUBE-1",          5087,  -3.50742E-03,  -3.56342E-03,   387.500E-03,NA,NA,"",   5.25580E-03,            0.,   388.815E-03,   255.795E-06,   2.61887E+03
C:/ALETube/PressureUpdate/LargeStep/DeformErode/JobErode.odb,Step-1,Increment      7: Step Time =,    70.00,"TUBE-1",          5310,  -2.92791E-03,  -4.05307E-03,   400.000E-03,NA,NA,"",   5.25627E-03,            0.,   401.311E-03,   256.267E-06,   2.70408E+03
C:/ALETube/PressureUpdate/LargeStep/DeformErode/JobErode.odb,Step-1,Increment      7: Step Time =,    70.00,"TUBE-1",          5251,  -3.50742E-03,  -3.56342E-03,   400.000E-03,NA,NA,"",   5.25617E-03,            0.,   401.311E-03,   256.171E-06,   2.70320E+03
C:/ALETube/PressureUpdate/LargeStep/DeformErode/JobErode.odb,Step-1,Increment      7: Step Time =,    70.00,"TUBE-1",          5474,  -2.92791E-03,  -4.05307E-03,   412.500E-03,NA,NA,"",   5.25664E-03,  -433.681E-21,   413.808E-03,   256.644E-06,   2.78842E+03
C:/ALETube/PressureUpdate/LargeStep/DeformErode/JobErode.odb,Step-1,Increment      7: Step Time =,    70.00,"TUBE-1",          5415,  -3.50742E-03,  -3.56342E-03,   412.500E-03,NA,NA,"",   5.25655E-03,            0.,   413.808E-03,   256.548E-06,   2.78751E+03
C:/ALETube/PressureUpdate/LargeStep/DeformErode/JobErode.odb,Step-1,Increment      7: Step Time =,    70.00,"TUBE-1",          5638,  -2.92791E-03,  -4.05307E-03,   425.000E-03,NA,NA,"",   5.25702E-03,            0.,   426.304E-03,   257.021E-06,   2.87274E+03
C:/ALETube/PressureUpdate/LargeStep/DeformErode/JobErode.odb,Step-1,Increment      7: Step Time =,    70.00,"TUBE-1",          5579,  -3.50742E-03,  -3.56342E-03,   425.000E-03,NA,NA,"",   5.25692E-03,            0.,   426.304E-03,   256.924E-06,   2.87181E+03
C:/ALETube/PressureUpdate/LargeStep/DeformErode/JobErode.odb,Step-1,Increment      7: Step Time =,    70.00,"TUBE-1",          5743,  -3.50742E-03,  -3.56342E-03,     437.5E-03,NA,NA,"",   5.25730E-03,  -433.681E-21,   438.801E-03,   257.300E-06,   2.95610E+03
C:/ALETube/PressureUpdate/LargeStep/DeformErode/JobErode.odb,Step-1,Increment      7: Step Time =,    70.00,"TUBE-1",          5802,  -2.92791E-03,  -4.05307E-03,     437.5E-03,NA,NA,"",   5.25740E-03,  -433.681E-21,   438.801E-03,   257.397E-06,   2.95706E+03
C:/ALETube/PressureUpdate/LargeStep/DeformErode/JobErode.odb,Step-1,Increment      7: Step Time =,    70.00,"TUBE-1",          5966,  -2.92791E-03,  -4.05307E-03,   450.000E-03,NA,NA,"",   5.25777E-03,  -433.681E-21,   451.297E-03,   257.774E-06,   3.04137E+03
C:/ALETube/PressureUpdate/LargeStep/DeformErode/JobErode.odb,Step-1,Increment      7: Step Time =,    70.00,"TUBE-1",          5907,  -3.50742E-03,  -3.56342E-03,   450.000E-03,NA,NA,"",   5.25768E-03,            0.,   451.297E-03,   257.677E-06,   3.04037E+03
C:/ALETube/PressureUpdate/LargeStep/DeformErode/JobErode.odb,Step-1,Increment      7: Step Time =,    70.00,"TUBE-1",          6130,  -2.92791E-03,  -4.05307E-03,   462.500E-03,NA,NA,"",   5.25815E-03,            0.,   463.793E-03,   258.151E-06,   3.12566E+03
C:/ALETube/PressureUpdate/LargeStep/DeformErode/JobErode.odb,Step-1,Increment      7: Step Time =,    70.00,"TUBE-1",          6071,  -3.50742E-03,  -3.56342E-03,   462.500E-03,NA,NA,"",   5.25805E-03,            0.,   463.793E-03,   258.053E-06,   3.12464E+03
C:/ALETube/PressureUpdate/LargeStep/DeformErode/JobErode.odb,Step-1,Increment      7: Step Time =,    70.00,"TUBE-1",          6294,  -2.92791E-03,  -4.05307E-03,   475.000E-03,NA,NA,"",   5.25853E-03,            0.,   476.289E-03,   258.528E-06,   3.20994E+03
C:/ALETube/PressureUpdate/LargeStep/DeformErode/JobErode.odb,Step-1,Increment      7: Step Time =,    70.00,"TUBE-1",          6235,  -3.50742E-03,  -3.56342E-03,   475.000E-03,NA,NA,"",   5.25843E-03,  -433.681E-21,   476.289E-03,   258.429E-06,   3.20889E+03
C:/ALETube/PressureUpdate/LargeStep/DeformErode/JobErode.odb,Step-1,Increment      7: Step Time =,    70.00,"TUBE-1",          6458,  -2.92791E-03,  -4.05307E-03,   487.500E-03,NA,NA,"",   5.25891E-03,            0.,   488.785E-03,   258.905E-06,   3.29421E+03
C:/ALETube/PressureUpdate/LargeStep/DeformErode/JobErode.odb,Step-1,Increment      7: Step Time =,    70.00,"TUBE-1",          6399,  -3.50742E-03,  -3.56342E-03,   487.500E-03,NA,NA,"",   5.25881E-03,            0.,   488.785E-03,   258.805E-06,   3.29314E+03
C:/ALETube/PressureUpdate/LargeStep/DeformErode/JobErode.odb,Step-1,Increment      7: Step Time =,    70.00,"TUBE-1",          6563,  -3.50742E-03,  -3.56342E-03,      500.E-03,NA,NA,"",   5.25918E-03,            0.,   501.280E-03,   259.182E-06,   3.37737E+03
C:/ALETube/PressureUpdate/LargeStep/DeformErode/JobErode.odb,Step-1,Increment      7: Step Time =,    70.00,"TUBE-1",          6622,  -2.92791E-03,  -4.05307E-03,      500.E-03,NA,NA,"",   5.25928E-03,            0.,   501.280E-03,   259.282E-06,   3.37847E+03
C:/ALETube/PressureUpdate/LargeStep/DeformErode/JobErode.odb,Step-1,Increment      7: Step Time =,    70.00,"TUBE-1",          6786,  -2.92791E-03,  -4.05307E-03,   512.500E-03,NA,NA,"",   5.25966E-03,            0.,   513.776E-03,   259.659E-06,   3.46272E+03
C:/ALETube/PressureUpdate/LargeStep/DeformErode/JobErode.odb,Step-1,Increment      7: Step Time =,    70.00,"TUBE-1",          6727,  -3.50742E-03,  -3.56342E-03,   512.500E-03,NA,NA,"",   5.25956E-03,            0.,   513.776E-03,   259.558E-06,   3.46159E+03
C:/ALETube/PressureUpdate/LargeStep/DeformErode/JobErode.odb,Step-1,Increment      7: Step Time =,    70.00,"TUBE-1",          6950,  -2.92791E-03,  -4.05307E-03,   525.000E-03,NA,NA,"",   5.26004E-03,            0.,   526.272E-03,   260.035E-06,   3.54695E+03
C:/ALETube/PressureUpdate/LargeStep/DeformErode/JobErode.odb,Step-1,Increment      7: Step Time =,    70.00,"TUBE-1",          6891,  -3.50742E-03,  -3.56342E-03,   525.000E-03,NA,NA,"",   5.25993E-03,            0.,   526.272E-03,   259.934E-06,   3.54579E+03
C:/ALETube/PressureUpdate/LargeStep/DeformErode/JobErode.odb,Step-1,Increment      7: Step Time =,    70.00,"TUBE-1",          7114,  -2.92791E-03,  -4.05307E-03,   537.500E-03,NA,NA,"",   5.26041E-03,  -433.681E-21,   538.767E-03,   260.412E-06,   3.63118E+03
C:/ALETube/PressureUpdate/LargeStep/DeformErode/JobErode.odb,Step-1,Increment      7: Step Time =,    70.00,"TUBE-1",          7055,  -3.50742E-03,  -3.56342E-03,   537.500E-03,NA,NA,"",   5.26031E-03,   433.681E-21,   538.767E-03,   260.310E-06,   3.62999E+03
C:/ALETube/PressureUpdate/LargeStep/DeformErode/JobErode.odb,Step-1,Increment      7: Step Time =,    70.00,"TUBE-1",          7278,  -2.92791E-03,  -4.05307E-03,   550.000E-03,NA,NA,"",   5.26079E-03,  -433.681E-21,   551.262E-03,   260.789E-06,   3.71539E+03
C:/ALETube/PressureUpdate/LargeStep/DeformErode/JobErode.odb,Step-1,Increment      7: Step Time =,    70.00,"TUBE-1",          7219,  -3.50742E-03,  -3.56342E-03,   550.000E-03,NA,NA,"",   5.26069E-03,            0.,   551.262E-03,   260.686E-06,   3.71418E+03
C:/ALETube/PressureUpdate/LargeStep/DeformErode/JobErode.odb,Step-1,Increment      7: Step Time =,    70.00,"TUBE-1",          7383,  -3.50742E-03,  -3.56342E-03,     562.5E-03,NA,NA,"",   5.26106E-03,   433.681E-21,   563.757E-03,   261.063E-06,   3.79835E+03
C:/ALETube/PressureUpdate/LargeStep/DeformErode/JobErode.odb,Step-1,Increment      7: Step Time =,    70.00,"TUBE-1",          7442,  -2.92791E-03,  -4.05307E-03,     562.5E-03,NA,NA,"",   5.26117E-03,   433.681E-21,   563.757E-03,   261.166E-06,   3.79959E+03
C:/ALETube/PressureUpdate/LargeStep/DeformErode/JobErode.odb,Step-1,Increment      7: Step Time =,    70.00,"TUBE-1",          7606,  -2.92791E-03,  -4.05307E-03,   575.000E-03,NA,NA,"",   5.26154E-03,            0.,   576.253E-03,   261.543E-06,   3.88378E+03
C:/ALETube/PressureUpdate/LargeStep/DeformErode/JobErode.odb,Step-1,Increment      7: Step Time =,    70.00,"TUBE-1",          7547,  -3.50742E-03,  -3.56342E-03,   575.000E-03,NA,NA,"",   5.26144E-03,            0.,   576.253E-03,   261.439E-06,   3.88251E+03
C:/ALETube/PressureUpdate/LargeStep/DeformErode/JobErode.odb,Step-1,Increment      7: Step Time =,    70.00,"TUBE-1",          7770,  -2.92791E-03,  -4.05307E-03,   587.500E-03,NA,NA,"",   5.26192E-03,            0.,   588.748E-03,   261.919E-06,   3.96796E+03
C:/ALETube/PressureUpdate/LargeStep/DeformErode/JobErode.odb,Step-1,Increment      7: Step Time =,    70.00,"TUBE-1",          7711,  -3.50742E-03,  -3.56342E-03,   587.500E-03,NA,NA,"",   5.26181E-03,   433.681E-21,   588.748E-03,   261.815E-06,   3.96666E+03
C:/ALETube/PressureUpdate/LargeStep/DeformErode/JobErode.odb,Step-1,Increment      7: Step Time =,    70.00,"TUBE-1",          7934,  -2.92791E-03,  -4.05307E-03,   600.000E-03,NA,NA,"",   5.26230E-03,            0.,   601.242E-03,   262.296E-06,   4.05212E+03
C:/ALETube/PressureUpdate/LargeStep/DeformErode/JobErode.odb,Step-1,Increment      7: Step Time =,    70.00,"TUBE-1",          7875,  -3.50742E-03,  -3.56342E-03,   600.000E-03,NA,NA,"",   5.26219E-03,   433.681E-21,   601.242E-03,   262.191E-06,   4.05080E+03
C:/ALETube/PressureUpdate/LargeStep/DeformErode/JobErode.odb,Step-1,Increment      7: Step Time =,    70.00,"TUBE-1",          8098,  -2.92791E-03,  -4.05307E-03,   612.500E-03,NA,NA,"",   5.26267E-03,            0.,   613.737E-03,   262.673E-06,   4.13628E+03
C:/ALETube/PressureUpdate/LargeStep/DeformErode/JobErode.odb,Step-1,Increment      7: Step Time =,    70.00,"TUBE-1",          8039,  -3.50742E-03,  -3.56342E-03,   612.500E-03,NA,NA,"",   5.26257E-03,            0.,   613.737E-03,   262.567E-06,   4.13493E+03
C:/ALETube/PressureUpdate/LargeStep/DeformErode/JobErode.odb,Step-1,Increment      7: Step Time =,    70.00,"TUBE-1",          8203,  -3.50742E-03,  -3.56342E-03,      625.E-03,NA,NA,"",   5.26294E-03,   433.681E-21,   626.232E-03,   262.943E-06,   4.21905E+03
C:/ALETube/PressureUpdate/LargeStep/DeformErode/JobErode.odb,Step-1,Increment      7: Step Time =,    70.00,"TUBE-1",          8262,  -2.92791E-03,  -4.05307E-03,      625.E-03,NA,NA,"",   5.26305E-03,            0.,   626.232E-03,   263.049E-06,   4.22042E+03
C:/ALETube/PressureUpdate/LargeStep/DeformErode/JobErode.odb,Step-1,Increment      7: Step Time =,    70.00,"TUBE-1",          8426,  -2.92791E-03,  -4.05307E-03,   637.500E-03,NA,NA,"",   5.26343E-03,  -433.681E-21,   638.726E-03,   263.426E-06,   4.30455E+03
C:/ALETube/PressureUpdate/LargeStep/DeformErode/JobErode.odb,Step-1,Increment      7: Step Time =,    70.00,"TUBE-1",          8367,  -3.50742E-03,  -3.56342E-03,   637.500E-03,NA,NA,"",   5.26332E-03,            0.,   638.726E-03,   263.319E-06,   4.30315E+03
C:/ALETube/PressureUpdate/LargeStep/DeformErode/JobErode.odb,Step-1,Increment      7: Step Time =,    70.00,"TUBE-1",          8590,  -2.92791E-03,  -4.05307E-03,   650.000E-03,NA,NA,"",   5.26380E-03,            0.,   651.221E-03,   263.803E-06,   4.38868E+03
C:/ALETube/PressureUpdate/LargeStep/DeformErode/JobErode.odb,Step-1,Increment      7: Step Time =,    70.00,"TUBE-1",          8531,  -3.50742E-03,  -3.56342E-03,   650.000E-03,NA,NA,"",   5.26370E-03,            0.,   651.221E-03,   263.695E-06,   4.38724E+03
C:/ALETube/PressureUpdate/LargeStep/DeformErode/JobErode.odb,Step-1,Increment      7: Step Time =,    70.00,"TUBE-1",          8754,  -2.92791E-03,  -4.05307E-03,   662.500E-03,NA,NA,"",   5.26418E-03,   433.681E-21,   663.715E-03,   264.179E-06,   4.47279E+03
C:/ALETube/PressureUpdate/LargeStep/DeformErode/JobErode.odb,Step-1,Increment      7: Step Time =,    70.00,"TUBE-1",          8695,  -3.50742E-03,  -3.56342E-03,   662.500E-03,NA,NA,"",   5.26407E-03,   165.935E-12,   663.715E-03,   264.071E-06,   4.47133E+03
C:/ALETube/PressureUpdate/LargeStep/DeformErode/JobErode.odb,Step-1,Increment      7: Step Time =,    70.00,"TUBE-1",          8918,  -2.92791E-03,  -4.05307E-03,   675.000E-03,NA,NA,"",   5.26456E-03,   433.681E-21,   676.210E-03,   264.556E-06,   4.55688E+03
C:/ALETube/PressureUpdate/LargeStep/DeformErode/JobErode.odb,Step-1,Increment      7: Step Time =,    70.00,"TUBE-1",          8859,  -3.50742E-03,  -3.56342E-03,   675.000E-03,NA,NA,"",   5.26445E-03,  -163.327E-12,   676.210E-03,   264.447E-06,   4.55539E+03
C:/ALETube/PressureUpdate/LargeStep/DeformErode/JobErode.odb,Step-1,Increment      7: Step Time =,    70.00,"TUBE-1",          9023,  -3.50742E-03,  -3.56342E-03,     687.5E-03,NA,NA,"",   5.26482E-03,  -433.681E-21,   688.704E-03,   264.823E-06,   4.63945E+03
C:/ALETube/PressureUpdate/LargeStep/DeformErode/JobErode.odb,Step-1,Increment      7: Step Time =,    70.00,"TUBE-1",          9082,  -2.92791E-03,  -4.05307E-03,     687.5E-03,NA,NA,"",   5.26493E-03,            0.,   688.704E-03,   264.932E-06,   4.64097E+03
C:/ALETube/PressureUpdate/LargeStep/DeformErode/JobErode.odb,Step-1,Increment      7: Step Time =,    70.00,"TUBE-1",          9246,  -2.92791E-03,  -4.05307E-03,   700.000E-03,NA,NA,"",   5.26531E-03,            0.,   701.198E-03,   265.309E-06,   4.72504E+03
C:/ALETube/PressureUpdate/LargeStep/DeformErode/JobErode.odb,Step-1,Increment      7: Step Time =,    70.00,"TUBE-1",          9187,  -3.50742E-03,  -3.56342E-03,   700.000E-03,NA,NA,"",   5.26520E-03,            0.,   701.198E-03,   265.199E-06,   4.72350E+03
C:/ALETube/PressureUpdate/LargeStep/DeformErode/JobErode.odb,Step-1,Increment      7: Step Time =,    70.00,"TUBE-1",          9410,  -2.92791E-03,  -4.05307E-03,   712.500E-03,NA,NA,"",   5.26569E-03,            0.,   713.692E-03,   265.686E-06,   4.80911E+03
C:/ALETube/PressureUpdate/LargeStep/DeformErode/JobErode.odb,Step-1,Increment      7: Step Time =,    70.00,"TUBE-1",          9351,  -3.50742E-03,  -3.56342E-03,   712.500E-03,NA,NA,"",   5.26557E-03,            0.,   713.692E-03,   265.575E-06,   4.80754E+03
C:/ALETube/PressureUpdate/LargeStep/DeformErode/JobErode.odb,Step-1,Increment      7: Step Time =,    70.00,"TUBE-1",          9574,  -2.92791E-03,  -4.05307E-03,   725.000E-03,NA,NA,"",   5.26606E-03,            0.,   726.186E-03,   266.062E-06,   4.89316E+03
C:/ALETube/PressureUpdate/LargeStep/DeformErode/JobErode.odb,Step-1,Increment      7: Step Time =,    70.00,"TUBE-1",          9515,  -3.50742E-03,  -3.56342E-03,   725.000E-03,NA,NA,"",   5.26595E-03,  -433.681E-21,   726.186E-03,   265.951E-06,   4.89156E+03
C:/ALETube/PressureUpdate/LargeStep/DeformErode/JobErode.odb,Step-1,Increment      7: Step Time =,    70.00,"TUBE-1",          9738,  -2.92791E-03,  -4.05307E-03,   737.500E-03,NA,NA,"",   5.26644E-03,            0.,   738.679E-03,   266.439E-06,   4.97720E+03
C:/ALETube/PressureUpdate/LargeStep/DeformErode/JobErode.odb,Step-1,Increment      7: Step Time =,    70.00,"TUBE-1",          9679,  -3.50742E-03,  -3.56342E-03,   737.500E-03,NA,NA,"",   5.26633E-03,            0.,   738.679E-03,   266.327E-06,   4.97557E+03
C:/ALETube/PressureUpdate/LargeStep/DeformErode/JobErode.odb,Step-1,Increment      7: Step Time =,    70.00,"TUBE-1",          9843,  -3.50742E-03,  -3.56342E-03,      750.E-03,NA,NA,"",   5.26670E-03,            0.,   751.173E-03,   266.703E-06,   5.05957E+03
C:/ALETube/PressureUpdate/LargeStep/DeformErode/JobErode.odb,Step-1,Increment      7: Step Time =,    70.00,"TUBE-1",          9902,  -2.92791E-03,  -4.05307E-03,      750.E-03,NA,NA,"",   5.26682E-03,   272.682E-12,   751.173E-03,   266.815E-06,   5.06123E+03
C:/ALETube/PressureUpdate/LargeStep/DeformErode/JobErode.odb,Step-1,Increment      7: Step Time =,    70.00,"TUBE-1",         10066,  -2.92791E-03,  -4.05307E-03,   762.500E-03,NA,NA,"",   5.26719E-03,            0.,   763.666E-03,   267.192E-06,   5.14524E+03
C:/ALETube/PressureUpdate/LargeStep/DeformErode/JobErode.odb,Step-1,Increment      7: Step Time =,    70.00,"TUBE-1",         10007,  -3.50742E-03,  -3.56342E-03,   762.500E-03,NA,NA,"",   5.26708E-03,   433.681E-21,   763.666E-03,   267.079E-06,   5.14356E+03
C:/ALETube/PressureUpdate/LargeStep/DeformErode/JobErode.odb,Step-1,Increment      7: Step Time =,    70.00,"TUBE-1",         10230,  -2.92791E-03,  -4.05307E-03,   775.000E-03,NA,NA,"",   5.26757E-03,            0.,   776.160E-03,   267.568E-06,   5.22925E+03
C:/ALETube/PressureUpdate/LargeStep/DeformErode/JobErode.odb,Step-1,Increment      7: Step Time =,    70.00,"TUBE-1",         10171,  -3.50742E-03,  -3.56342E-03,   775.000E-03,NA,NA,"",   5.26745E-03,            0.,   776.160E-03,   267.454E-06,   5.22754E+03
C:/ALETube/PressureUpdate/LargeStep/DeformErode/JobErode.odb,Step-1,Increment      7: Step Time =,    70.00,"TUBE-1",         10394,  -2.92791E-03,  -4.05307E-03,   787.500E-03,NA,NA,"",   5.26794E-03,   433.681E-21,   788.653E-03,   267.945E-06,   5.31324E+03
C:/ALETube/PressureUpdate/LargeStep/DeformErode/JobErode.odb,Step-1,Increment      7: Step Time =,    70.00,"TUBE-1",         10335,  -3.50742E-03,  -3.56342E-03,   787.500E-03,NA,NA,"",   5.26783E-03,  -433.681E-21,   788.653E-03,   267.830E-06,   5.31151E+03
C:/ALETube/PressureUpdate/LargeStep/DeformErode/JobErode.odb,Step-1,Increment      7: Step Time =,    70.00,"TUBE-1",         10558,  -2.92791E-03,  -4.05307E-03,   800.000E-03,NA,NA,"",   5.26832E-03,   433.681E-21,   801.146E-03,   268.321E-06,   5.39723E+03
C:/ALETube/PressureUpdate/LargeStep/DeformErode/JobErode.odb,Step-1,Increment      7: Step Time =,    70.00,"TUBE-1",         10499,  -3.50742E-03,  -3.56342E-03,   800.000E-03,NA,NA,"",   5.26821E-03,  -433.681E-21,   801.146E-03,   268.206E-06,   5.39546E+03
C:/ALETube/PressureUpdate/LargeStep/DeformErode/JobErode.odb,Step-1,Increment      7: Step Time =,    70.00,"TUBE-1",         10663,  -3.50742E-03,  -3.56342E-03,     812.5E-03,NA,NA,"",   5.26858E-03,            0.,   813.639E-03,   268.582E-06,   5.47941E+03
C:/ALETube/PressureUpdate/LargeStep/DeformErode/JobErode.odb,Step-1,Increment      7: Step Time =,    70.00,"TUBE-1",         10722,  -2.92791E-03,  -4.05307E-03,     812.5E-03,NA,NA,"",   5.26870E-03,            0.,   813.639E-03,   268.697E-06,   5.48120E+03
C:/ALETube/PressureUpdate/LargeStep/DeformErode/JobErode.odb,Step-1,Increment      7: Step Time =,    70.00,"TUBE-1",         10886,  -2.92791E-03,  -4.05307E-03,   825.000E-03,NA,NA,"",   5.26907E-03,  -433.681E-21,   826.132E-03,   269.074E-06,   5.56516E+03
C:/ALETube/PressureUpdate/LargeStep/DeformErode/JobErode.odb,Step-1,Increment      7: Step Time =,    70.00,"TUBE-1",         10827,  -3.50742E-03,  -3.56342E-03,   825.000E-03,NA,NA,"",   5.26896E-03,            0.,   826.132E-03,   268.958E-06,   5.56334E+03
C:/ALETube/PressureUpdate/LargeStep/DeformErode/JobErode.odb,Step-1,Increment      7: Step Time =,    70.00,"TUBE-1",         11050,  -2.92791E-03,  -4.05307E-03,   837.500E-03,NA,NA,"",   5.26945E-03,            0.,   838.625E-03,   269.450E-06,   5.64911E+03
C:/ALETube/PressureUpdate/LargeStep/DeformErode/JobErode.odb,Step-1,Increment      7: Step Time =,    70.00,"TUBE-1",         10991,  -3.50742E-03,  -3.56342E-03,   837.500E-03,NA,NA,"",   5.26933E-03,            0.,   838.625E-03,   269.334E-06,   5.64726E+03
C:/ALETube/PressureUpdate/LargeStep/DeformErode/JobErode.odb,Step-1,Increment      7: Step Time =,    70.00,"TUBE-1",         11214,  -2.92791E-03,  -4.05307E-03,   850.000E-03,NA,NA,"",   5.26983E-03,   433.681E-21,   851.118E-03,   269.827E-06,   5.73304E+03
C:/ALETube/PressureUpdate/LargeStep/DeformErode/JobErode.odb,Step-1,Increment      7: Step Time =,    70.00,"TUBE-1",         11155,  -3.50742E-03,  -3.56342E-03,   850.000E-03,NA,NA,"",   5.26971E-03,   433.681E-21,   851.118E-03,   269.709E-06,   5.73117E+03
C:/ALETube/PressureUpdate/LargeStep/DeformErode/JobErode.odb,Step-1,Increment      7: Step Time =,    70.00,"TUBE-1",         11378,  -2.92791E-03,  -4.05307E-03,   862.500E-03,NA,NA,"",   5.27020E-03,  -433.681E-21,   863.611E-03,   270.203E-06,   5.81697E+03
C:/ALETube/PressureUpdate/LargeStep/DeformErode/JobErode.odb,Step-1,Increment      7: Step Time =,    70.00,"TUBE-1",         11319,  -3.50742E-03,  -3.56342E-03,   862.500E-03,NA,NA,"",   5.27008E-03,   433.681E-21,   863.611E-03,   270.085E-06,   5.81507E+03
C:/ALETube/PressureUpdate/LargeStep/DeformErode/JobErode.odb,Step-1,Increment      7: Step Time =,    70.00,"TUBE-1",         11483,  -3.50742E-03,  -3.56342E-03,      875.E-03,NA,NA,"",   5.27046E-03,            0.,   876.103E-03,   270.461E-06,   5.89895E+03
C:/ALETube/PressureUpdate/LargeStep/DeformErode/JobErode.odb,Step-1,Increment      7: Step Time =,    70.00,"TUBE-1",         11542,  -2.92791E-03,  -4.05307E-03,      875.E-03,NA,NA,"",   5.27058E-03,            0.,   876.103E-03,   270.579E-06,   5.90088E+03
C:/ALETube/PressureUpdate/LargeStep/DeformErode/JobErode.odb,Step-1,Increment      7: Step Time =,    70.00,"TUBE-1",         11706,  -2.92791E-03,  -4.05307E-03,   887.500E-03,NA,NA,"",   5.27096E-03,            0.,   888.595E-03,   270.956E-06,   5.98478E+03
C:/ALETube/PressureUpdate/LargeStep/DeformErode/JobErode.odb,Step-1,Increment      7: Step Time =,    70.00,"TUBE-1",         11647,  -3.50742E-03,  -3.56342E-03,   887.500E-03,NA,NA,"",   5.27084E-03,            0.,   888.595E-03,   270.836E-06,   5.98283E+03
C:/ALETube/PressureUpdate/LargeStep/DeformErode/JobErode.odb,Step-1,Increment      7: Step Time =,    70.00,"TUBE-1",         11870,  -2.92791E-03,  -4.05307E-03,   900.000E-03,NA,NA,"",   5.27133E-03,   433.681E-21,   901.088E-03,   271.332E-06,   6.06868E+03
C:/ALETube/PressureUpdate/LargeStep/DeformErode/JobErode.odb,Step-1,Increment      7: Step Time =,    70.00,"TUBE-1",         11811,  -3.50742E-03,  -3.56342E-03,   900.000E-03,NA,NA,"",   5.27121E-03,            0.,   901.088E-03,   271.212E-06,   6.06669E+03
C:/ALETube/PressureUpdate/LargeStep/DeformErode/JobErode.odb,Step-1,Increment      7: Step Time =,    70.00,"TUBE-1",         12034,  -2.92791E-03,  -4.05307E-03,   912.500E-03,NA,NA,"",   5.27171E-03,   433.681E-21,   913.580E-03,   271.708E-06,   6.15256E+03
C:/ALETube/PressureUpdate/LargeStep/DeformErode/JobErode.odb,Step-1,Increment      7: Step Time =,    70.00,"TUBE-1",         11975,  -3.50742E-03,  -3.56342E-03,   912.500E-03,NA,NA,"",   5.27159E-03,            0.,   913.580E-03,   271.588E-06,   6.15054E+03
C:/ALETube/PressureUpdate/LargeStep/DeformErode/JobErode.odb,Step-1,Increment      7: Step Time =,    70.00,"TUBE-1",         12198,  -2.92791E-03,  -4.05307E-03,   925.000E-03,NA,NA,"",   5.27208E-03,  -433.681E-21,   926.072E-03,   272.084E-06,   6.23642E+03
C:/ALETube/PressureUpdate/LargeStep/DeformErode/JobErode.odb,Step-1,Increment      7: Step Time =,    70.00,"TUBE-1",         12139,  -3.50742E-03,  -3.56342E-03,   925.000E-03,NA,NA,"",   5.27196E-03,            0.,   926.072E-03,   271.964E-06,   6.23439E+03
C:/ALETube/PressureUpdate/LargeStep/DeformErode/JobErode.odb,Step-1,Increment      7: Step Time =,    70.00,"TUBE-1",         12303,  -3.50742E-03,  -3.56342E-03,     937.5E-03,NA,NA,"",   5.27234E-03,            0.,   938.564E-03,   272.339E-06,   6.31822E+03
C:/ALETube/PressureUpdate/LargeStep/DeformErode/JobErode.odb,Step-1,Increment      7: Step Time =,    70.00,"TUBE-1",         12362,  -2.92791E-03,  -4.05307E-03,     937.5E-03,NA,NA,"",   5.27246E-03,            0.,   938.564E-03,   272.461E-06,   6.32028E+03
C:/ALETube/PressureUpdate/LargeStep/DeformErode/JobErode.odb,Step-1,Increment      7: Step Time =,    70.00,"TUBE-1",         12526,  -2.92791E-03,  -4.05307E-03,   950.000E-03,NA,NA,"",   5.27284E-03,            0.,   951.056E-03,   272.837E-06,   6.40413E+03
C:/ALETube/PressureUpdate/LargeStep/DeformErode/JobErode.odb,Step-1,Increment      7: Step Time =,    70.00,"TUBE-1",         12467,  -3.50742E-03,  -3.56342E-03,   950.000E-03,NA,NA,"",   5.27271E-03,            0.,   951.056E-03,   272.715E-06,   6.40203E+03
C:/ALETube/PressureUpdate/LargeStep/DeformErode/JobErode.odb,Step-1,Increment      7: Step Time =,    70.00,"TUBE-1",         12690,  -2.92791E-03,  -4.05307E-03,   962.500E-03,NA,NA,"",   5.27321E-03,  -433.681E-21,   963.548E-03,   273.213E-06,   6.48796E+03
C:/ALETube/PressureUpdate/LargeStep/DeformErode/JobErode.odb,Step-1,Increment      7: Step Time =,    70.00,"TUBE-1",         12631,  -3.50742E-03,  -3.56342E-03,   962.500E-03,NA,NA,"",   5.27309E-03,            0.,   963.548E-03,   273.090E-06,   6.48584E+03
C:/ALETube/PressureUpdate/LargeStep/DeformErode/JobErode.odb,Step-1,Increment      7: Step Time =,    70.00,"TUBE-1",         12854,  -2.92791E-03,  -4.05307E-03,   975.000E-03,NA,NA,"",   5.27359E-03,            0.,   976.040E-03,   273.589E-06,   6.57178E+03
C:/ALETube/PressureUpdate/LargeStep/DeformErode/JobErode.odb,Step-1,Increment      7: Step Time =,    70.00,"TUBE-1",         12795,  -3.50742E-03,  -3.56342E-03,   975.000E-03,NA,NA,"",   5.27347E-03,            0.,   976.040E-03,   273.466E-06,   6.56964E+03
C:/ALETube/PressureUpdate/LargeStep/DeformErode/JobErode.odb,Step-1,Increment      7: Step Time =,    70.00,"TUBE-1",         13018,  -2.92791E-03,  -4.05307E-03,   987.500E-03,NA,NA,"",   5.27397E-03,  -433.681E-21,   988.531E-03,   273.966E-06,   6.65559E+03
C:/ALETube/PressureUpdate/LargeStep/DeformErode/JobErode.odb,Step-1,Increment      7: Step Time =,    70.00,"TUBE-1",         12959,  -3.50742E-03,  -3.56342E-03,   987.500E-03,NA,NA,"",   5.27384E-03,  -163.327E-12,   988.531E-03,   273.842E-06,   6.65342E+03
C:/ALETube/PressureUpdate/LargeStep/DeformErode/JobErode.odb,Step-1,Increment      7: Step Time =,    70.00,"TUBE-1",         13123,  -3.50742E-03,  -3.56342E-03,            1.,NA,NA,"",   5.27422E-03,   433.681E-21,       1.00102,   274.217E-06,   6.73719E+03
C:/ALETube/PressureUpdate/LargeStep/DeformErode/JobErode.odb,Step-1,Increment      7: Step Time =,    70.00,"TUBE-1",         13182,  -2.92791E-03,  -4.05307E-03,            1.,NA,NA,"",   5.27434E-03,            0.,       1.00102,   274.342E-06,   6.73940E+03
C:/ALETube/PressureUpdate/LargeStep/DeformErode/JobErode.odb,Step-1,Increment      7: Step Time =,    70.00,"TUBE-1",         13346,  -2.92791E-03,  -4.05307E-03,       1.01250,NA,NA,"",   5.27472E-03,   433.681E-21,       1.01351,   274.718E-06,   6.82318E+03
C:/ALETube/PressureUpdate/LargeStep/DeformErode/JobErode.odb,Step-1,Increment      7: Step Time =,    70.00,"TUBE-1",         13287,  -3.50742E-03,  -3.56342E-03,       1.01250,NA,NA,"",   5.27459E-03,            0.,       1.01351,   274.593E-06,   6.82095E+03
C:/ALETube/PressureUpdate/LargeStep/DeformErode/JobErode.odb,Step-1,Increment      7: Step Time =,    70.00,"TUBE-1",         13510,  -2.92791E-03,  -4.05307E-03,       1.02500,NA,NA,"",   5.27509E-03,            0.,       1.02601,   275.094E-06,   6.90696E+03
C:/ALETube/PressureUpdate/LargeStep/DeformErode/JobErode.odb,Step-1,Increment      7: Step Time =,    70.00,"TUBE-1",         13451,  -3.50742E-03,  -3.56342E-03,       1.02500,NA,NA,"",   5.27497E-03,            0.,       1.02601,   274.968E-06,   6.90470E+03
C:/ALETube/PressureUpdate/LargeStep/DeformErode/JobErode.odb,Step-1,Increment      7: Step Time =,    70.00,"TUBE-1",         13615,  -3.50742E-03,  -3.56342E-03,       1.03750,NA,NA,"",   5.27534E-03,  -163.327E-12,       1.03850,   275.344E-06,   6.98844E+03
C:/ALETube/PressureUpdate/LargeStep/DeformErode/JobErode.odb,Step-1,Increment      7: Step Time =,    70.00,"TUBE-1",         13674,  -2.92791E-03,  -4.05307E-03,       1.03750,NA,NA,"",   5.27547E-03,            0.,       1.03850,   275.470E-06,   6.99072E+03
C:/ALETube/PressureUpdate/LargeStep/DeformErode/JobErode.odb,Step-1,Increment      7: Step Time =,    70.00,"TUBE-1",         13838,  -2.92791E-03,  -4.05307E-03,       1.05000,NA,NA,"",   5.27585E-03,  -433.681E-21,       1.05099,   275.846E-06,   7.07448E+03
C:/ALETube/PressureUpdate/LargeStep/DeformErode/JobErode.odb,Step-1,Increment      7: Step Time =,    70.00,"TUBE-1",         13779,  -3.50742E-03,  -3.56342E-03,       1.05000,NA,NA,"",   5.27572E-03,            0.,       1.05099,   275.719E-06,   7.07216E+03
C:/ALETube/PressureUpdate/LargeStep/DeformErode/JobErode.odb,Step-1,Increment      7: Step Time =,    70.00,"TUBE-1",         14002,  -2.92791E-03,  -4.05307E-03,        1.0625,NA,NA,"",   5.27622E-03,   433.681E-21,       1.06348,   276.222E-06,   7.15822E+03
C:/ALETube/PressureUpdate/LargeStep/DeformErode/JobErode.odb,Step-1,Increment      7: Step Time =,    70.00,"TUBE-1",         13943,  -3.50742E-03,  -3.56342E-03,        1.0625,NA,NA,"",   5.27609E-03,   433.681E-21,       1.06348,   276.095E-06,   7.15588E+03
C:/ALETube/PressureUpdate/LargeStep/DeformErode/JobErode.odb,Step-1,Increment      7: Step Time =,    70.00,"TUBE-1",         14107,  -3.50742E-03,  -3.56342E-03,       1.07500,NA,NA,"",   5.27647E-03,  -163.327E-12,       1.07597,   276.470E-06,   7.23958E+03
C:/ALETube/PressureUpdate/LargeStep/DeformErode/JobErode.odb,Step-1,Increment      7: Step Time =,    70.00,"TUBE-1",         14166,  -2.92791E-03,  -4.05307E-03,       1.07500,NA,NA,"",   5.27660E-03,  -433.681E-21,       1.07597,   276.598E-06,   7.24195E+03
C:/ALETube/PressureUpdate/LargeStep/DeformErode/JobErode.odb,Step-1,Increment      7: Step Time =,    70.00,"TUBE-1",         14330,  -2.92791E-03,  -4.05307E-03,       1.08750,NA,NA,"",   5.27697E-03,            0.,       1.08846,   276.974E-06,   7.32567E+03
C:/ALETube/PressureUpdate/LargeStep/DeformErode/JobErode.odb,Step-1,Increment      7: Step Time =,    70.00,"TUBE-1",         14271,  -3.50742E-03,  -3.56342E-03,       1.08750,NA,NA,"",   5.27685E-03,   433.681E-21,       1.08846,   276.846E-06,   7.32328E+03
C:/ALETube/PressureUpdate/LargeStep/DeformErode/JobErode.odb,Step-1,Increment      7: Step Time =,    70.00,"TUBE-1",         14494,  -2.92791E-03,  -4.05307E-03,       1.10000,NA,NA,"",   5.27735E-03,            0.,       1.10095,   277.351E-06,   7.40938E+03
C:/ALETube/PressureUpdate/LargeStep/DeformErode/JobErode.odb,Step-1,Increment      7: Step Time =,    70.00,"TUBE-1",         14435,  -3.50742E-03,  -3.56342E-03,       1.10000,NA,NA,"",   5.27722E-03,   433.681E-21,       1.10095,   277.221E-06,   7.40696E+03
C:/ALETube/PressureUpdate/LargeStep/DeformErode/JobErode.odb,Step-1,Increment      7: Step Time =,    70.00,"TUBE-1",         14658,  -2.92791E-03,  -4.05307E-03,       1.11250,NA,NA,"",   5.27773E-03,   188.736E-12,       1.11344,   277.727E-06,   7.49308E+03
C:/ALETube/PressureUpdate/LargeStep/DeformErode/JobErode.odb,Step-1,Increment      7: Step Time =,    70.00,"TUBE-1",         14599,  -3.50742E-03,  -3.56342E-03,       1.11250,NA,NA,"",   5.27760E-03,            0.,       1.11344,   277.596E-06,   7.49063E+03
C:/ALETube/PressureUpdate/LargeStep/DeformErode/JobErode.odb,Step-1,Increment      7: Step Time =,    70.00,"TUBE-1",         14822,  -2.92791E-03,  -4.05307E-03,         1.125,NA,NA,"",   5.27810E-03,  -433.681E-21,       1.12593,   278.103E-06,   7.57676E+03
C:/ALETube/PressureUpdate/LargeStep/DeformErode/JobErode.odb,Step-1,Increment      7: Step Time =,    70.00,"TUBE-1",         14763,  -3.50742E-03,  -3.56342E-03,         1.125,NA,NA,"",   5.27797E-03,            0.,       1.12593,   277.972E-06,   7.57429E+03
C:/ALETube/PressureUpdate/LargeStep/DeformErode/JobErode.odb,Step-1,Increment      7: Step Time =,    70.00,"TUBE-1",         14927,  -3.50742E-03,  -3.56342E-03,       1.13750,NA,NA,"",   5.27835E-03,            0.,       1.13842,   278.347E-06,   7.65793E+03
C:/ALETube/PressureUpdate/LargeStep/DeformErode/JobErode.odb,Step-1,Increment      7: Step Time =,    70.00,"TUBE-1",         14986,  -2.92791E-03,  -4.05307E-03,       1.13750,NA,NA,"",   5.27848E-03,            0.,       1.13842,   278.479E-06,   7.66044E+03
C:/ALETube/PressureUpdate/LargeStep/DeformErode/JobErode.odb,Step-1,Increment      7: Step Time =,    70.00,"TUBE-1",         15150,  -2.92791E-03,  -4.05307E-03,       1.15000,NA,NA,"",   5.27885E-03,            0.,       1.15091,   278.854E-06,   7.74410E+03
C:/ALETube/PressureUpdate/LargeStep/DeformErode/JobErode.odb,Step-1,Increment      7: Step Time =,    70.00,"TUBE-1",         15091,  -3.50742E-03,  -3.56342E-03,       1.15000,NA,NA,"",   5.27872E-03,  -433.681E-21,       1.15091,   278.723E-06,   7.74157E+03
C:/ALETube/PressureUpdate/LargeStep/DeformErode/JobErode.odb,Step-1,Increment      7: Step Time =,    70.00,"TUBE-1",         15314,  -2.92791E-03,  -4.05307E-03,       1.16250,NA,NA,"",   5.27923E-03,            0.,       1.16340,   279.230E-06,   7.82775E+03
C:/ALETube/PressureUpdate/LargeStep/DeformErode/JobErode.odb,Step-1,Increment      7: Step Time =,    70.00,"TUBE-1",         15255,  -3.50742E-03,  -3.56342E-03,       1.16250,NA,NA,"",   5.27910E-03,  -433.681E-21,       1.16340,   279.098E-06,   7.82519E+03
C:/ALETube/PressureUpdate/LargeStep/DeformErode/JobErode.odb,Step-1,Increment      7: Step Time =,    70.00,"TUBE-1",         15478,  -2.92791E-03,  -4.05307E-03,       1.17500,NA,NA,"",   5.27961E-03,            0.,       1.17589,   279.606E-06,   7.91139E+03
C:/ALETube/PressureUpdate/LargeStep/DeformErode/JobErode.odb,Step-1,Increment      7: Step Time =,    70.00,"TUBE-1",         15419,  -3.50742E-03,  -3.56342E-03,       1.17500,NA,NA,"",   5.27947E-03,  -433.681E-21,       1.17589,   279.473E-06,   7.90880E+03
C:/ALETube/PressureUpdate/LargeStep/DeformErode/JobErode.odb,Step-1,Increment      7: Step Time =,    70.00,"TUBE-1",         15642,  -2.92791E-03,  -4.05307E-03,        1.1875,NA,NA,"",   5.27998E-03,            0.,       1.18838,   279.982E-06,   7.99502E+03
C:/ALETube/PressureUpdate/LargeStep/DeformErode/JobErode.odb,Step-1,Increment      7: Step Time =,    70.00,"TUBE-1",         15583,  -3.50742E-03,  -3.56342E-03,        1.1875,NA,NA,"",   5.27985E-03,  -433.681E-21,       1.18838,   279.849E-06,   7.99241E+03
C:/ALETube/PressureUpdate/LargeStep/DeformErode/JobErode.odb,Step-1,Increment      7: Step Time =,    70.00,"TUBE-1",         15747,  -3.50742E-03,  -3.56342E-03,       1.20000,NA,NA,"",   5.28022E-03,            0.,       1.20087,   280.224E-06,   8.07600E+03
C:/ALETube/PressureUpdate/LargeStep/DeformErode/JobErode.odb,Step-1,Increment      7: Step Time =,    70.00,"TUBE-1",         15806,  -2.92791E-03,  -4.05307E-03,       1.20000,NA,NA,"",   5.28036E-03,            0.,       1.20087,   280.358E-06,   8.07864E+03
C:/ALETube/PressureUpdate/LargeStep/DeformErode/JobErode.odb,Step-1,Increment      7: Step Time =,    70.00,"TUBE-1",         15970,  -2.92791E-03,  -4.05307E-03,       1.21250,NA,NA,"",   5.28073E-03,            0.,       1.21336,   280.734E-06,   8.16224E+03
C:/ALETube/PressureUpdate/LargeStep/DeformErode/JobErode.odb,Step-1,Increment      7: Step Time =,    70.00,"TUBE-1",         15911,  -3.50742E-03,  -3.56342E-03,       1.21250,NA,NA,"",   5.28060E-03,  -433.681E-21,       1.21336,   280.599E-06,   8.15957E+03
C:/ALETube/PressureUpdate/LargeStep/DeformErode/JobErode.odb,Step-1,Increment      7: Step Time =,    70.00,"TUBE-1",         16134,  -2.92791E-03,  -4.05307E-03,       1.22500,NA,NA,"",   5.28111E-03,  -433.681E-21,       1.22585,   281.110E-06,   8.24584E+03
C:/ALETube/PressureUpdate/LargeStep/DeformErode/JobErode.odb,Step-1,Increment      7: Step Time =,    70.00,"TUBE-1",         16075,  -3.50742E-03,  -3.56342E-03,       1.22500,NA,NA,"",   5.28097E-03,            0.,       1.22585,   280.974E-06,   8.24314E+03
C:/ALETube/PressureUpdate/LargeStep/DeformErode/JobErode.odb,Step-1,Increment      7: Step Time =,    70.00,"TUBE-1",         16298,  -2.92791E-03,  -4.05307E-03,       1.23750,NA,NA,"",   5.28149E-03,  -433.681E-21,       1.23834,   281.486E-06,   8.32942E+03
C:/ALETube/PressureUpdate/LargeStep/DeformErode/JobErode.odb,Step-1,Increment      7: Step Time =,    70.00,"TUBE-1",         16239,  -3.50742E-03,  -3.56342E-03,       1.23750,NA,NA,"",   5.28135E-03,   433.681E-21,       1.23834,   281.350E-06,   8.32670E+03
C:/ALETube/PressureUpdate/LargeStep/DeformErode/JobErode.odb,Step-1,Increment      7: Step Time =,    70.00,"TUBE-1",         16462,  -2.92791E-03,  -4.05307E-03,          1.25,NA,NA,"",   5.28186E-03,   188.736E-12,       1.25083,   281.862E-06,   8.41300E+03
C:/ALETube/PressureUpdate/LargeStep/DeformErode/JobErode.odb,Step-1,Increment      7: Step Time =,    70.00,"TUBE-1",         16403,  -3.50742E-03,  -3.56342E-03,          1.25,NA,NA,"",   5.28172E-03,  -433.681E-21,       1.25083,   281.725E-06,   8.41024E+03
C:/ALETube/PressureUpdate/LargeStep/DeformErode/JobErode.odb,Step-1,Increment      7: Step Time =,    70.00,"TUBE-1",         16567,  -3.50742E-03,  -3.56342E-03,       1.26250,NA,NA,"",   5.28210E-03,            0.,       1.26332,   282.100E-06,   8.49378E+03
C:/ALETube/PressureUpdate/LargeStep/DeformErode/JobErode.odb,Step-1,Increment      7: Step Time =,    70.00,"TUBE-1",         16626,  -2.92791E-03,  -4.05307E-03,       1.26250,NA,NA,"",   5.28224E-03,  -433.681E-21,       1.26332,   282.237E-06,   8.49655E+03
C:/ALETube/PressureUpdate/LargeStep/DeformErode/JobErode.odb,Step-1,Increment      7: Step Time =,    70.00,"TUBE-1",         16790,  -2.92791E-03,  -4.05307E-03,       1.27500,NA,NA,"",   5.28261E-03,            0.,       1.27581,   282.613E-06,   8.58010E+03
C:/ALETube/PressureUpdate/LargeStep/DeformErode/JobErode.odb,Step-1,Increment      7: Step Time =,    70.00,"TUBE-1",         16731,  -3.50742E-03,  -3.56342E-03,       1.27500,NA,NA,"",   5.28248E-03,            0.,       1.27581,   282.475E-06,   8.57730E+03
C:/ALETube/PressureUpdate/LargeStep/DeformErode/JobErode.odb,Step-1,Increment      7: Step Time =,    70.00,"TUBE-1",         16954,  -2.92791E-03,  -4.05307E-03,       1.28750,NA,NA,"",   5.28299E-03,  -433.681E-21,       1.28830,   282.989E-06,   8.66364E+03
C:/ALETube/PressureUpdate/LargeStep/DeformErode/JobErode.odb,Step-1,Increment      7: Step Time =,    70.00,"TUBE-1",         16895,  -3.50742E-03,  -3.56342E-03,       1.28750,NA,NA,"",   5.28285E-03,  -433.681E-21,       1.28830,   282.850E-06,   8.66081E+03
C:/ALETube/PressureUpdate/LargeStep/DeformErode/JobErode.odb,Step-1,Increment      7: Step Time =,    70.00,"TUBE-1",         17118,  -2.92791E-03,  -4.05307E-03,       1.30000,NA,NA,"",   5.28337E-03,            0.,       1.30079,   283.365E-06,   8.74717E+03
C:/ALETube/PressureUpdate/LargeStep/DeformErode/JobErode.odb,Step-1,Increment      7: Step Time =,    70.00,"TUBE-1",         17059,  -3.50742E-03,  -3.56342E-03,       1.30000,NA,NA,"",   5.28323E-03,            0.,       1.30079,   283.226E-06,   8.74431E+03
C:/ALETube/PressureUpdate/LargeStep/DeformErode/JobErode.odb,Step-1,Increment      7: Step Time =,    70.00,"TUBE-1",         17282,  -2.92791E-03,  -4.05307E-03,        1.3125,NA,NA,"",   5.28374E-03,            0.,       1.31328,   283.741E-06,   8.83069E+03
C:/ALETube/PressureUpdate/LargeStep/DeformErode/JobErode.odb,Step-1,Increment      7: Step Time =,    70.00,"TUBE-1",         17223,  -3.50742E-03,  -3.56342E-03,        1.3125,NA,NA,"",   5.28360E-03,            0.,       1.31328,   283.601E-06,   8.82780E+03
C:/ALETube/PressureUpdate/LargeStep/DeformErode/JobErode.odb,Step-1,Increment      7: Step Time =,    70.00,"TUBE-1",         17387,  -3.50742E-03,  -3.56342E-03,       1.32500,NA,NA,"",   5.28398E-03,            0.,       1.32576,   283.976E-06,   8.91127E+03
C:/ALETube/PressureUpdate/LargeStep/DeformErode/JobErode.odb,Step-1,Increment      7: Step Time =,    70.00,"TUBE-1",         17446,  -2.92791E-03,  -4.05307E-03,       1.32500,NA,NA,"",   5.28412E-03,   433.681E-21,       1.32576,   284.116E-06,   8.91419E+03
C:/ALETube/PressureUpdate/LargeStep/DeformErode/JobErode.odb,Step-1,Increment      7: Step Time =,    70.00,"TUBE-1",         17610,  -2.92791E-03,  -4.05307E-03,       1.33750,NA,NA,"",   5.28449E-03,  -433.681E-21,       1.33825,   284.492E-06,   8.99768E+03
C:/ALETube/PressureUpdate/LargeStep/DeformErode/JobErode.odb,Step-1,Increment      7: Step Time =,    70.00,"TUBE-1",         17551,  -3.50742E-03,  -3.56342E-03,       1.33750,NA,NA,"",   5.28435E-03,            0.,       1.33825,   284.351E-06,   8.99474E+03
C:/ALETube/PressureUpdate/LargeStep/DeformErode/JobErode.odb,Step-1,Increment      7: Step Time =,    70.00,"TUBE-1",         17774,  -2.92791E-03,  -4.05307E-03,       1.35000,NA,NA,"",   5.28487E-03,  -433.681E-21,       1.35074,   284.868E-06,   9.08116E+03
C:/ALETube/PressureUpdate/LargeStep/DeformErode/JobErode.odb,Step-1,Increment      7: Step Time =,    70.00,"TUBE-1",         17715,  -3.50742E-03,  -3.56342E-03,       1.35000,NA,NA,"",   5.28473E-03,            0.,       1.35074,   284.726E-06,   9.07819E+03
C:/ALETube/PressureUpdate/LargeStep/DeformErode/JobErode.odb,Step-1,Increment      7: Step Time =,    70.00,"TUBE-1",         17938,  -2.92791E-03,  -4.05307E-03,       1.36250,NA,NA,"",   5.28524E-03,            0.,       1.36323,   285.243E-06,   9.16463E+03
C:/ALETube/PressureUpdate/LargeStep/DeformErode/JobErode.odb,Step-1,Increment      7: Step Time =,    70.00,"TUBE-1",         17879,  -3.50742E-03,  -3.56342E-03,       1.36250,NA,NA,"",   5.28510E-03,   433.681E-21,       1.36323,   285.101E-06,   9.16163E+03
C:/ALETube/PressureUpdate/LargeStep/DeformErode/JobErode.odb,Step-1,Increment      7: Step Time =,    70.00,"TUBE-1",         18102,  -2.92791E-03,  -4.05307E-03,         1.375,NA,NA,"",   5.28562E-03,            0.,       1.37572,   285.619E-06,   9.24809E+03
C:/ALETube/PressureUpdate/LargeStep/DeformErode/JobErode.odb,Step-1,Increment      7: Step Time =,    70.00,"TUBE-1",         18043,  -3.50742E-03,  -3.56342E-03,         1.375,NA,NA,"",   5.28548E-03,            0.,       1.37572,   285.476E-06,   9.24507E+03
C:/ALETube/PressureUpdate/LargeStep/DeformErode/JobErode.odb,Step-1,Increment      7: Step Time =,    70.00,"TUBE-1",         18207,  -3.50742E-03,  -3.56342E-03,       1.38750,NA,NA,"",   5.28585E-03,            0.,       1.38821,   285.851E-06,   9.32848E+03
C:/ALETube/PressureUpdate/LargeStep/DeformErode/JobErode.odb,Step-1,Increment      7: Step Time =,    70.00,"TUBE-1",         18266,  -2.92791E-03,  -4.05307E-03,       1.38750,NA,NA,"",   5.28599E-03,  -433.681E-21,       1.38821,   285.995E-06,   9.33154E+03
C:/ALETube/PressureUpdate/LargeStep/DeformErode/JobErode.odb,Step-1,Increment      7: Step Time =,    70.00,"TUBE-1",         18430,  -2.92791E-03,  -4.05307E-03,       1.40000,NA,NA,"",   5.28637E-03,            0.,       1.40069,   286.370E-06,   9.41497E+03
C:/ALETube/PressureUpdate/LargeStep/DeformErode/JobErode.odb,Step-1,Increment      7: Step Time =,    70.00,"TUBE-1",         18371,  -3.50742E-03,  -3.56342E-03,       1.40000,NA,NA,"",   5.28623E-03,   433.681E-21,       1.40069,   286.226E-06,   9.41189E+03
C:/ALETube/PressureUpdate/LargeStep/DeformErode/JobErode.odb,Step-1,Increment      7: Step Time =,    70.00,"TUBE-1",         18594,  -2.92791E-03,  -4.05307E-03,       1.41250,NA,NA,"",   5.28675E-03,            0.,       1.41318,   286.746E-06,   9.49840E+03
C:/ALETube/PressureUpdate/LargeStep/DeformErode/JobErode.odb,Step-1,Increment      7: Step Time =,    70.00,"TUBE-1",         18535,  -3.50742E-03,  -3.56342E-03,       1.41250,NA,NA,"",   5.28660E-03,            0.,       1.41318,   286.601E-06,   9.49529E+03
C:/ALETube/PressureUpdate/LargeStep/DeformErode/JobErode.odb,Step-1,Increment      7: Step Time =,    70.00,"TUBE-1",         18758,  -2.92791E-03,  -4.05307E-03,       1.42500,NA,NA,"",   5.28712E-03,            0.,       1.42567,   287.122E-06,   9.58181E+03
C:/ALETube/PressureUpdate/LargeStep/DeformErode/JobErode.odb,Step-1,Increment      7: Step Time =,    70.00,"TUBE-1",         18699,  -3.50742E-03,  -3.56342E-03,       1.42500,NA,NA,"",   5.28698E-03,            0.,       1.42567,   286.976E-06,   9.57867E+03
C:/ALETube/PressureUpdate/LargeStep/DeformErode/JobErode.odb,Step-1,Increment      7: Step Time =,    70.00,"TUBE-1",         18922,  -2.92791E-03,  -4.05307E-03,        1.4375,NA,NA,"",   5.28750E-03,            0.,       1.43816,   287.497E-06,   9.66522E+03
C:/ALETube/PressureUpdate/LargeStep/DeformErode/JobErode.odb,Step-1,Increment      7: Step Time =,    70.00,"TUBE-1",         18863,  -3.50742E-03,  -3.56342E-03,        1.4375,NA,NA,"",   5.28735E-03,   165.935E-12,       1.43816,   287.351E-06,   9.66205E+03
C:/ALETube/PressureUpdate/LargeStep/DeformErode/JobErode.odb,Step-1,Increment      7: Step Time =,    70.00,"TUBE-1",         19027,  -3.50742E-03,  -3.56342E-03,       1.45000,NA,NA,"",   5.28773E-03,            0.,       1.45065,   287.726E-06,   9.74541E+03
C:/ALETube/PressureUpdate/LargeStep/DeformErode/JobErode.odb,Step-1,Increment      7: Step Time =,    70.00,"TUBE-1",         19086,  -2.92791E-03,  -4.05307E-03,       1.45000,NA,NA,"",   5.28787E-03,            0.,       1.45065,   287.873E-06,   9.74861E+03
C:/ALETube/PressureUpdate/LargeStep/DeformErode/JobErode.odb,Step-1,Increment      7: Step Time =,    70.00,"TUBE-1",         19250,  -2.92791E-03,  -4.05307E-03,       1.46250,NA,NA,"",   5.28825E-03,            0.,       1.46313,   288.248E-06,   9.83198E+03
C:/ALETube/PressureUpdate/LargeStep/DeformErode/JobErode.odb,Step-1,Increment      7: Step Time =,    70.00,"TUBE-1",         19191,  -3.50742E-03,  -3.56342E-03,       1.46250,NA,NA,"",   5.28810E-03,            0.,       1.46313,   288.101E-06,   9.82876E+03
C:/ALETube/PressureUpdate/LargeStep/DeformErode/JobErode.odb,Step-1,Increment      7: Step Time =,    70.00,"TUBE-1",         19414,  -2.92791E-03,  -4.05307E-03,       1.47500,NA,NA,"",   5.28862E-03,  -433.681E-21,       1.47562,   288.624E-06,   9.91535E+03
C:/ALETube/PressureUpdate/LargeStep/DeformErode/JobErode.odb,Step-1,Increment      7: Step Time =,    70.00,"TUBE-1",         19355,  -3.50742E-03,  -3.56342E-03,       1.47500,NA,NA,"",   5.28848E-03,  -165.935E-12,       1.47562,   288.476E-06,   9.91211E+03
C:/ALETube/PressureUpdate/LargeStep/DeformErode/JobErode.odb,Step-1,Increment      7: Step Time =,    70.00,"TUBE-1",         19578,  -2.92791E-03,  -4.05307E-03,       1.48750,NA,NA,"",   5.28900E-03,  -433.681E-21,       1.48811,   288.999E-06,   9.99871E+03
C:/ALETube/PressureUpdate/LargeStep/DeformErode/JobErode.odb,Step-1,Increment      7: Step Time =,    70.00,"TUBE-1",         19519,  -3.50742E-03,  -3.56342E-03,       1.48750,NA,NA,"",   5.28885E-03,            0.,       1.48811,   288.851E-06,   9.99543E+03
C:/ALETube/PressureUpdate/LargeStep/DeformErode/JobErode.odb,Step-1,Increment      7: Step Time =,    70.00,"TUBE-1",         19742,  -2.92791E-03,  -4.05307E-03,           1.5,NA,NA,"",   5.28937E-03,            0.,       1.50060,   289.375E-06,   10.0821E+03
C:/ALETube/PressureUpdate/LargeStep/DeformErode/JobErode.odb,Step-1,Increment      7: Step Time =,    70.00,"TUBE-1",         19683,  -3.50742E-03,  -3.56342E-03,           1.5,NA,NA,"",   5.28923E-03,            0.,       1.50060,   289.226E-06,   10.0788E+03
C:/ALETube/PressureUpdate/LargeStep/DeformErode/JobErode.odb,Step-1,Increment      7: Step Time =,    70.00,"TUBE-1",         19847,  -3.50742E-03,  -3.56342E-03,       1.51250,NA,NA,"",   5.28960E-03,            0.,       1.51308,   289.601E-06,   10.1621E+03
C:/ALETube/PressureUpdate/LargeStep/DeformErode/JobErode.odb,Step-1,Increment      7: Step Time =,    70.00,"TUBE-1",         19906,  -2.92791E-03,  -4.05307E-03,       1.51250,NA,NA,"",   5.28975E-03,  -433.681E-21,       1.51308,   289.750E-06,   10.1654E+03
C:/ALETube/PressureUpdate/LargeStep/DeformErode/JobErode.odb,Step-1,Increment      7: Step Time =,    70.00,"TUBE-1",         20070,  -2.92791E-03,  -4.05307E-03,       1.52500,NA,NA,"",   5.29013E-03,            0.,       1.52557,   290.126E-06,   10.2487E+03
C:/ALETube/PressureUpdate/LargeStep/DeformErode/JobErode.odb,Step-1,Increment      7: Step Time =,    70.00,"TUBE-1",         20011,  -3.50742E-03,  -3.56342E-03,       1.52500,NA,NA,"",   5.28998E-03,            0.,       1.52557,   289.976E-06,   10.2454E+03
C:/ALETube/PressureUpdate/LargeStep/DeformErode/JobErode.odb,Step-1,Increment      7: Step Time =,    70.00,"TUBE-1",         20234,  -2.92791E-03,  -4.05307E-03,       1.53750,NA,NA,"",   5.29050E-03,  -433.681E-21,       1.53806,   290.501E-06,   10.3320E+03
C:/ALETube/PressureUpdate/LargeStep/DeformErode/JobErode.odb,Step-1,Increment      7: Step Time =,    70.00,"TUBE-1",         20175,  -3.50742E-03,  -3.56342E-03,       1.53750,NA,NA,"",   5.29035E-03,   433.681E-21,       1.53806,   290.351E-06,   10.3286E+03
C:/ALETube/PressureUpdate/LargeStep/DeformErode/JobErode.odb,Step-1,Increment      7: Step Time =,    70.00,"TUBE-1",         20398,  -2.92791E-03,  -4.05307E-03,       1.55000,NA,NA,"",   5.29088E-03,            0.,       1.55054,   290.877E-06,   10.4153E+03
C:/ALETube/PressureUpdate/LargeStep/DeformErode/JobErode.odb,Step-1,Increment      7: Step Time =,    70.00,"TUBE-1",         20339,  -3.50742E-03,  -3.56342E-03,       1.55000,NA,NA,"",   5.29073E-03,   163.327E-12,       1.55054,   290.726E-06,   10.4119E+03
C:/ALETube/PressureUpdate/LargeStep/DeformErode/JobErode.odb,Step-1,Increment      7: Step Time =,    70.00,"TUBE-1",         20562,  -2.92791E-03,  -4.05307E-03,        1.5625,NA,NA,"",   5.29125E-03,            0.,       1.56303,   291.252E-06,   10.4986E+03
C:/ALETube/PressureUpdate/LargeStep/DeformErode/JobErode.odb,Step-1,Increment      7: Step Time =,    70.00,"TUBE-1",         20503,  -3.50742E-03,  -3.56342E-03,        1.5625,NA,NA,"",   5.29110E-03,  -165.935E-12,       1.56303,   291.100E-06,   10.4952E+03
C:/ALETube/PressureUpdate/LargeStep/DeformErode/JobErode.odb,Step-1,Increment      7: Step Time =,    70.00,"TUBE-1",         20667,  -3.50742E-03,  -3.56342E-03,       1.57500,NA,NA,"",   5.29147E-03,            0.,       1.57552,   291.475E-06,   10.5784E+03
C:/ALETube/PressureUpdate/LargeStep/DeformErode/JobErode.odb,Step-1,Increment      7: Step Time =,    70.00,"TUBE-1",         20726,  -2.92791E-03,  -4.05307E-03,       1.57500,NA,NA,"",   5.29163E-03,  -867.362E-21,       1.57552,   291.628E-06,   10.5819E+03
C:/ALETube/PressureUpdate/LargeStep/DeformErode/JobErode.odb,Step-1,Increment      7: Step Time =,    70.00,"TUBE-1",         20890,  -2.92791E-03,  -4.05307E-03,       1.58750,NA,NA,"",   5.29200E-03,  -433.681E-21,       1.58800,   292.003E-06,   10.6652E+03
C:/ALETube/PressureUpdate/LargeStep/DeformErode/JobErode.odb,Step-1,Increment      7: Step Time =,    70.00,"TUBE-1",         20831,  -3.50742E-03,  -3.56342E-03,       1.58750,NA,NA,"",   5.29185E-03,            0.,       1.58800,   291.850E-06,   10.6617E+03
C:/ALETube/PressureUpdate/LargeStep/DeformErode/JobErode.odb,Step-1,Increment      7: Step Time =,    70.00,"TUBE-1",         21054,  -2.92791E-03,  -4.05307E-03,       1.60000,NA,NA,"",   5.29238E-03,  -433.681E-21,       1.60049,   292.378E-06,   10.7484E+03
C:/ALETube/PressureUpdate/LargeStep/DeformErode/JobErode.odb,Step-1,Increment      7: Step Time =,    70.00,"TUBE-1",         20995,  -3.50742E-03,  -3.56342E-03,       1.60000,NA,NA,"",   5.29222E-03,            0.,       1.60049,   292.225E-06,   10.7449E+03
C:/ALETube/PressureUpdate/LargeStep/DeformErode/JobErode.odb,Step-1,Increment      7: Step Time =,    70.00,"TUBE-1",         21218,  -2.92791E-03,  -4.05307E-03,       1.61250,NA,NA,"",   5.29275E-03,            0.,       1.61298,   292.754E-06,   10.8317E+03
C:/ALETube/PressureUpdate/LargeStep/DeformErode/JobErode.odb,Step-1,Increment      7: Step Time =,    70.00,"TUBE-1",         21159,  -3.50742E-03,  -3.56342E-03,       1.61250,NA,NA,"",   5.29260E-03,            0.,       1.61298,   292.600E-06,   10.8281E+03
C:/ALETube/PressureUpdate/LargeStep/DeformErode/JobErode.odb,Step-1,Increment      7: Step Time =,    70.00,"TUBE-1",         21382,  -2.92791E-03,  -4.05307E-03,         1.625,NA,NA,"",   5.29313E-03,  -433.681E-21,       1.62546,   293.129E-06,   10.9148E+03
C:/ALETube/PressureUpdate/LargeStep/DeformErode/JobErode.odb,Step-1,Increment      7: Step Time =,    70.00,"TUBE-1",         21323,  -3.50742E-03,  -3.56342E-03,         1.625,NA,NA,"",   5.29297E-03,   433.681E-21,       1.62546,   292.974E-06,   10.9112E+03
C:/ALETube/PressureUpdate/LargeStep/DeformErode/JobErode.odb,Step-1,Increment      7: Step Time =,    70.00,"TUBE-1",         21487,  -3.50742E-03,  -3.56342E-03,       1.63750,NA,NA,"",   5.29335E-03,            0.,       1.63795,   293.349E-06,   10.9946E+03
C:/ALETube/PressureUpdate/LargeStep/DeformErode/JobErode.odb,Step-1,Increment      7: Step Time =,    70.00,"TUBE-1",         21546,  -2.92791E-03,  -4.05307E-03,       1.63750,NA,NA,"",   5.29350E-03,            0.,       1.63795,   293.504E-06,   10.9982E+03
C:/ALETube/PressureUpdate/LargeStep/DeformErode/JobErode.odb,Step-1,Increment      7: Step Time =,    70.00,"TUBE-1",         21710,  -2.92791E-03,  -4.05307E-03,       1.65000,NA,NA,"",   5.29388E-03,            0.,       1.65043,   293.884E-06,   11.0820E+03
C:/ALETube/PressureUpdate/LargeStep/DeformErode/JobErode.odb,Step-1,Increment      7: Step Time =,    70.00,"TUBE-1",         21651,  -3.50742E-03,  -3.56342E-03,       1.65000,NA,NA,"",   5.29373E-03,            0.,       1.65043,   293.728E-06,   11.0783E+03
C:/ALETube/PressureUpdate/LargeStep/DeformErode/JobErode.odb,Step-1,Increment      7: Step Time =,    70.00,"TUBE-1",         21874,  -2.92791E-03,  -4.05307E-03,       1.66250,NA,NA,"",   5.29424E-03,            0.,       1.66292,   294.244E-06,   11.1625E+03
C:/ALETube/PressureUpdate/LargeStep/DeformErode/JobErode.odb,Step-1,Increment      7: Step Time =,    70.00,"TUBE-1",         21815,  -3.50742E-03,  -3.56342E-03,       1.66250,NA,NA,"",   5.29409E-03,            0.,       1.66292,   294.087E-06,   11.1588E+03
C:/ALETube/PressureUpdate/LargeStep/DeformErode/JobErode.odb,Step-1,Increment      7: Step Time =,    70.00,"TUBE-1",         22038,  -2.92791E-03,  -4.05307E-03,       1.67500,NA,NA,"",   5.29453E-03,            0.,       1.67541,   294.534E-06,   11.2284E+03
C:/ALETube/PressureUpdate/LargeStep/DeformErode/JobErode.odb,Step-1,Increment      7: Step Time =,    70.00,"TUBE-1",         21979,  -3.50742E-03,  -3.56342E-03,       1.67500,NA,NA,"",   5.29438E-03,            0.,       1.67541,   294.377E-06,   11.2247E+03
C:/ALETube/PressureUpdate/LargeStep/DeformErode/JobErode.odb,Step-1,Increment      7: Step Time =,    70.00,"TUBE-1",         22202,  -2.92791E-03,  -4.05307E-03,        1.6875,NA,NA,"",   5.29492E-03,  -433.681E-21,       1.68789,   294.918E-06,   11.3137E+03
C:/ALETube/PressureUpdate/LargeStep/DeformErode/JobErode.odb,Step-1,Increment      7: Step Time =,    70.00,"TUBE-1",         22143,  -3.50742E-03,  -3.56342E-03,        1.6875,NA,NA,"",   5.29476E-03,            0.,       1.68789,   294.760E-06,   11.3100E+03
C:/ALETube/PressureUpdate/LargeStep/DeformErode/JobErode.odb,Step-1,Increment      7: Step Time =,    70.00,"TUBE-1",         22307,  -3.50742E-03,  -3.56342E-03,       1.70000,NA,NA,"",   5.29514E-03,            0.,       1.70038,   295.137E-06,   11.3932E+03
C:/ALETube/PressureUpdate/LargeStep/DeformErode/JobErode.odb,Step-1,Increment      7: Step Time =,    70.00,"TUBE-1",         22366,  -2.92791E-03,  -4.05307E-03,       1.70000,NA,NA,"",   5.29530E-03,  -433.681E-21,       1.70038,   295.296E-06,   11.3969E+03
C:/ALETube/PressureUpdate/LargeStep/DeformErode/JobErode.odb,Step-1,Increment      7: Step Time =,    70.00,"TUBE-1",         22530,  -2.92791E-03,  -4.05307E-03,       1.71250,NA,NA,"",   5.29567E-03,  -433.681E-21,       1.71286,   295.670E-06,   11.4802E+03
C:/ALETube/PressureUpdate/LargeStep/DeformErode/JobErode.odb,Step-1,Increment      7: Step Time =,    70.00,"TUBE-1",         22471,  -3.50742E-03,  -3.56342E-03,       1.71250,NA,NA,"",   5.29551E-03,            0.,       1.71286,   295.511E-06,   11.4765E+03
C:/ALETube/PressureUpdate/LargeStep/DeformErode/JobErode.odb,Step-1,Increment      7: Step Time =,    70.00,"TUBE-1",         22694,  -2.92791E-03,  -4.05307E-03,       1.72500,NA,NA,"",   5.29605E-03,  -433.681E-21,       1.72535,   296.046E-06,   11.5631E+03
C:/ALETube/PressureUpdate/LargeStep/DeformErode/JobErode.odb,Step-1,Increment      7: Step Time =,    70.00,"TUBE-1",         22635,  -3.50742E-03,  -3.56342E-03,       1.72500,NA,NA,"",   5.29589E-03,            0.,       1.72535,   295.886E-06,   11.5594E+03
C:/ALETube/PressureUpdate/LargeStep/DeformErode/JobErode.odb,Step-1,Increment      7: Step Time =,    70.00,"TUBE-1",         22858,  -2.92791E-03,  -4.05307E-03,       1.73750,NA,NA,"",   5.29642E-03,            0.,       1.73783,   296.424E-06,   11.6462E+03
C:/ALETube/PressureUpdate/LargeStep/DeformErode/JobErode.odb,Step-1,Increment      7: Step Time =,    70.00,"TUBE-1",         22799,  -3.50742E-03,  -3.56342E-03,       1.73750,NA,NA,"",   5.29626E-03,            0.,       1.73783,   296.264E-06,   11.6424E+03
C:/ALETube/PressureUpdate/LargeStep/DeformErode/JobErode.odb,Step-1,Increment      7: Step Time =,    70.00,"TUBE-1",         23022,  -2.92791E-03,  -4.05307E-03,          1.75,NA,NA,"",   5.29680E-03,            0.,       1.75032,   296.799E-06,   11.7293E+03
C:/ALETube/PressureUpdate/LargeStep/DeformErode/JobErode.odb,Step-1,Increment      7: Step Time =,    70.00,"TUBE-1",         22963,  -3.50742E-03,  -3.56342E-03,          1.75,NA,NA,"",   5.29664E-03,  -433.681E-21,       1.75032,   296.638E-06,   11.7255E+03
C:/ALETube/PressureUpdate/LargeStep/DeformErode/JobErode.odb,Step-1,Increment      7: Step Time =,    70.00,"TUBE-1",         23127,  -3.50742E-03,  -3.56342E-03,       1.76250,NA,NA,"",   5.29701E-03,            0.,       1.76280,   297.013E-06,   11.8085E+03
C:/ALETube/PressureUpdate/LargeStep/DeformErode/JobErode.odb,Step-1,Increment      7: Step Time =,    70.00,"TUBE-1",         23186,  -2.92791E-03,  -4.05307E-03,       1.76250,NA,NA,"",   5.29717E-03,   433.681E-21,       1.76280,   297.174E-06,   11.8124E+03
C:/ALETube/PressureUpdate/LargeStep/DeformErode/JobErode.odb,Step-1,Increment      7: Step Time =,    70.00,"TUBE-1",         23350,  -2.92791E-03,  -4.05307E-03,       1.77500,NA,NA,"",   5.29755E-03,            0.,       1.77529,   297.551E-06,   11.8954E+03
C:/ALETube/PressureUpdate/LargeStep/DeformErode/JobErode.odb,Step-1,Increment      7: Step Time =,    70.00,"TUBE-1",         23291,  -3.50742E-03,  -3.56342E-03,       1.77500,NA,NA,"",   5.29739E-03,  -433.681E-21,       1.77529,   297.389E-06,   11.8915E+03
C:/ALETube/PressureUpdate/LargeStep/DeformErode/JobErode.odb,Step-1,Increment      7: Step Time =,    70.00,"TUBE-1",         23514,  -2.92791E-03,  -4.05307E-03,       1.78750,NA,NA,"",   5.29793E-03,   188.736E-12,       1.78777,   297.927E-06,   11.9784E+03
C:/ALETube/PressureUpdate/LargeStep/DeformErode/JobErode.odb,Step-1,Increment      7: Step Time =,    70.00,"TUBE-1",         23455,  -3.50742E-03,  -3.56342E-03,       1.78750,NA,NA,"",   5.29776E-03,            0.,       1.78777,   297.764E-06,   11.9745E+03
C:/ALETube/PressureUpdate/LargeStep/DeformErode/JobErode.odb,Step-1,Increment      7: Step Time =,    70.00,"TUBE-1",         23678,  -2.92791E-03,  -4.05307E-03,       1.80000,NA,NA,"",   5.29830E-03,            0.,       1.80026,   298.303E-06,   12.0614E+03
C:/ALETube/PressureUpdate/LargeStep/DeformErode/JobErode.odb,Step-1,Increment      7: Step Time =,    70.00,"TUBE-1",         23619,  -3.50742E-03,  -3.56342E-03,       1.80000,NA,NA,"",   5.29814E-03,  -433.681E-21,       1.80026,   298.140E-06,   12.0575E+03
C:/ALETube/PressureUpdate/LargeStep/DeformErode/JobErode.odb,Step-1,Increment      7: Step Time =,    70.00,"TUBE-1",         23842,  -2.92791E-03,  -4.05307E-03,        1.8125,NA,NA,"",   5.29868E-03,            0.,       1.81274,   298.678E-06,   12.1445E+03
C:/ALETube/PressureUpdate/LargeStep/DeformErode/JobErode.odb,Step-1,Increment      7: Step Time =,    70.00,"TUBE-1",         23783,  -3.50742E-03,  -3.56342E-03,        1.8125,NA,NA,"",   5.29851E-03,            0.,       1.81274,   298.514E-06,   12.1405E+03
C:/ALETube/PressureUpdate/LargeStep/DeformErode/JobErode.odb,Step-1,Increment      7: Step Time =,    70.00,"TUBE-1",         23947,  -3.50742E-03,  -3.56342E-03,       1.82500,NA,NA,"",   5.29889E-03,  -433.681E-21,       1.82523,   298.889E-06,   12.2236E+03
C:/ALETube/PressureUpdate/LargeStep/DeformErode/JobErode.odb,Step-1,Increment      7: Step Time =,    70.00,"TUBE-1",         24006,  -2.92791E-03,  -4.05307E-03,       1.82500,NA,NA,"",   5.29905E-03,            0.,       1.82523,   299.053E-06,   12.2276E+03
C:/ALETube/PressureUpdate/LargeStep/DeformErode/JobErode.odb,Step-1,Increment      7: Step Time =,    70.00,"TUBE-1",         24170,  -2.92791E-03,  -4.05307E-03,       1.83750,NA,NA,"",   5.29943E-03,            0.,       1.83771,   299.428E-06,   12.3106E+03
C:/ALETube/PressureUpdate/LargeStep/DeformErode/JobErode.odb,Step-1,Increment      7: Step Time =,    70.00,"TUBE-1",         24111,  -3.50742E-03,  -3.56342E-03,       1.83750,NA,NA,"",   5.29926E-03,   433.681E-21,       1.83771,   299.263E-06,   12.3066E+03
C:/ALETube/PressureUpdate/LargeStep/DeformErode/JobErode.odb,Step-1,Increment      7: Step Time =,    70.00,"TUBE-1",         24334,  -2.92791E-03,  -4.05307E-03,       1.85000,NA,NA,"",   5.29980E-03,   433.681E-21,       1.85020,   299.803E-06,   12.3936E+03
C:/ALETube/PressureUpdate/LargeStep/DeformErode/JobErode.odb,Step-1,Increment      7: Step Time =,    70.00,"TUBE-1",         24275,  -3.50742E-03,  -3.56342E-03,       1.85000,NA,NA,"",   5.29964E-03,  -433.681E-21,       1.85020,   299.638E-06,   12.3896E+03
C:/ALETube/PressureUpdate/LargeStep/DeformErode/JobErode.odb,Step-1,Increment      7: Step Time =,    70.00,"TUBE-1",         24498,  -2.92791E-03,  -4.05307E-03,       1.86250,NA,NA,"",   5.30018E-03,  -433.681E-21,       1.86268,   300.178E-06,   12.4767E+03
C:/ALETube/PressureUpdate/LargeStep/DeformErode/JobErode.odb,Step-1,Increment      7: Step Time =,    70.00,"TUBE-1",         24439,  -3.50742E-03,  -3.56342E-03,       1.86250,NA,NA,"",   5.30001E-03,            0.,       1.86268,   300.012E-06,   12.4726E+03
C:/ALETube/PressureUpdate/LargeStep/DeformErode/JobErode.odb,Step-1,Increment      7: Step Time =,    70.00,"TUBE-1",         24662,  -2.92791E-03,  -4.05307E-03,         1.875,NA,NA,"",   5.30055E-03,            0.,       1.87516,   300.553E-06,   12.5597E+03
C:/ALETube/PressureUpdate/LargeStep/DeformErode/JobErode.odb,Step-1,Increment      7: Step Time =,    70.00,"TUBE-1",         24603,  -3.50742E-03,  -3.56342E-03,         1.875,NA,NA,"",   5.30039E-03,            0.,       1.87516,   300.387E-06,   12.5556E+03
C:/ALETube/PressureUpdate/LargeStep/DeformErode/JobErode.odb,Step-1,Increment      7: Step Time =,    70.00,"TUBE-1",         24767,  -3.50742E-03,  -3.56342E-03,       1.88750,NA,NA,"",   5.30076E-03,   433.681E-21,       1.88765,   300.761E-06,   12.6385E+03
C:/ALETube/PressureUpdate/LargeStep/DeformErode/JobErode.odb,Step-1,Increment      7: Step Time =,    70.00,"TUBE-1",         24826,  -2.92791E-03,  -4.05307E-03,       1.88750,NA,NA,"",   5.30093E-03,            0.,       1.88765,   300.928E-06,   12.6427E+03
C:/ALETube/PressureUpdate/LargeStep/DeformErode/JobErode.odb,Step-1,Increment      7: Step Time =,    70.00,"TUBE-1",         24990,  -2.92791E-03,  -4.05307E-03,       1.90000,NA,NA,"",   5.30130E-03,            0.,       1.90013,   301.303E-06,   12.7257E+03
C:/ALETube/PressureUpdate/LargeStep/DeformErode/JobErode.odb,Step-1,Increment      7: Step Time =,    70.00,"TUBE-1",         24931,  -3.50742E-03,  -3.56342E-03,       1.90000,NA,NA,"",   5.30114E-03,            0.,       1.90013,   301.135E-06,   12.7215E+03
C:/ALETube/PressureUpdate/LargeStep/DeformErode/JobErode.odb,Step-1,Increment      7: Step Time =,    70.00,"TUBE-1",         25154,  -2.92791E-03,  -4.05307E-03,       1.91250,NA,NA,"",   5.30168E-03,            0.,       1.91262,   301.678E-06,   12.8086E+03
C:/ALETube/PressureUpdate/LargeStep/DeformErode/JobErode.odb,Step-1,Increment      7: Step Time =,    70.00,"TUBE-1",         25095,  -3.50742E-03,  -3.56342E-03,       1.91250,NA,NA,"",   5.30151E-03,   433.681E-21,       1.91262,   301.510E-06,   12.8044E+03
C:/ALETube/PressureUpdate/LargeStep/DeformErode/JobErode.odb,Step-1,Increment      7: Step Time =,    70.00,"TUBE-1",         25318,  -2.92791E-03,  -4.05307E-03,       1.92500,NA,NA,"",   5.30205E-03,  -433.681E-21,       1.92510,   302.053E-06,   12.8917E+03
C:/ALETube/PressureUpdate/LargeStep/DeformErode/JobErode.odb,Step-1,Increment      7: Step Time =,    70.00,"TUBE-1",         25259,  -3.50742E-03,  -3.56342E-03,       1.92500,NA,NA,"",   5.30188E-03,            0.,       1.92510,   301.884E-06,   12.8875E+03
C:/ALETube/PressureUpdate/LargeStep/DeformErode/JobErode.odb,Step-1,Increment      7: Step Time =,    70.00,"TUBE-1",         25482,  -2.92791E-03,  -4.05307E-03,        1.9375,NA,NA,"",   5.30243E-03,            0.,       1.93758,   302.428E-06,   12.9745E+03
C:/ALETube/PressureUpdate/LargeStep/DeformErode/JobErode.odb,Step-1,Increment      7: Step Time =,    70.00,"TUBE-1",         25423,  -3.50742E-03,  -3.56342E-03,        1.9375,NA,NA,"",   5.30226E-03,            0.,       1.93758,   302.258E-06,   12.9702E+03
C:/ALETube/PressureUpdate/LargeStep/DeformErode/JobErode.odb,Step-1,Increment      7: Step Time =,    70.00,"TUBE-1",         25587,  -3.50742E-03,  -3.56342E-03,       1.95000,NA,NA,"",   5.30263E-03,            0.,       1.95007,   302.633E-06,   13.0536E+03
C:/ALETube/PressureUpdate/LargeStep/DeformErode/JobErode.odb,Step-1,Increment      7: Step Time =,    70.00,"TUBE-1",         25646,  -2.92791E-03,  -4.05307E-03,       1.95000,NA,NA,"",   5.30280E-03,  -433.681E-21,       1.95007,   302.804E-06,   13.0579E+03
C:/ALETube/PressureUpdate/LargeStep/DeformErode/JobErode.odb,Step-1,Increment      7: Step Time =,    70.00,"TUBE-1",         25810,  -2.92791E-03,  -4.05307E-03,       1.96250,NA,NA,"",   5.30318E-03,  -433.681E-21,       1.96255,   303.177E-06,   13.1396E+03
C:/ALETube/PressureUpdate/LargeStep/DeformErode/JobErode.odb,Step-1,Increment      7: Step Time =,    70.00,"TUBE-1",         25751,  -3.50742E-03,  -3.56342E-03,       1.96250,NA,NA,"",   5.30301E-03,   165.935E-12,       1.96255,   303.006E-06,   13.1355E+03
C:/ALETube/PressureUpdate/LargeStep/DeformErode/JobErode.odb,Step-1,Increment      7: Step Time =,    70.00,"TUBE-1",         25974,  -2.92791E-03,  -4.05307E-03,       1.97500,NA,NA,"",   5.30355E-03,            0.,       1.97503,   303.553E-06,   13.2248E+03
C:/ALETube/PressureUpdate/LargeStep/DeformErode/JobErode.odb,Step-1,Increment      7: Step Time =,    70.00,"TUBE-1",         25915,  -3.50742E-03,  -3.56342E-03,       1.97500,NA,NA,"",   5.30338E-03,            0.,       1.97503,   303.381E-06,   13.2199E+03
C:/ALETube/PressureUpdate/LargeStep/DeformErode/JobErode.odb,Step-1,Increment      7: Step Time =,    70.00,"TUBE-1",         26138,  -2.92791E-03,  -4.05307E-03,       1.98750,NA,NA,"",   5.30393E-03,            0.,       1.98752,   303.933E-06,   13.3035E+03
C:/ALETube/PressureUpdate/LargeStep/DeformErode/JobErode.odb,Step-1,Increment      7: Step Time =,    70.00,"TUBE-1",         26079,  -3.50742E-03,  -3.56342E-03,       1.98750,NA,NA,"",   5.30376E-03,  -433.681E-21,       1.98752,   303.763E-06,   13.3017E+03
C:/ALETube/PressureUpdate/LargeStep/DeformErode/JobErode.odb,Step-1,Increment      7: Step Time =,    70.00,"TUBE-1",         26302,  -2.92791E-03,  -4.05307E-03,            2.,NA,NA,"",   5.30382E-03,            0.,            2.,   303.825E-06,   13.3208E+03
C:/ALETube/PressureUpdate/LargeStep/DeformErode/JobErode.odb,Step-1,Increment      7: Step Time =,    70.00,"TUBE-1",         26243,  -3.50742E-03,  -3.56342E-03,            2.,NA,NA,"",   5.30373E-03,            0.,            2.,   303.729E-06,   13.3476E+03
C:/ALETube/PressureUpdate/LargeStep/DeformErode/JobErode.odb,Step-1,Increment      8: Step Time =,    80.00,"TUBE-1",            62,  -2.92791E-03,  -4.05307E-03,            0.,NA,NA,"",   5.33074E-03,            0.,   1.63753E-03,   330.737E-06,       15.1154
C:/ALETube/PressureUpdate/LargeStep/DeformErode/JobErode.odb,Step-1,Increment      8: Step Time =,    80.00,"TUBE-1",             3,  -3.50742E-03,  -3.56342E-03,            0.,NA,NA,"",   5.33070E-03,  -433.681E-21,   1.63752E-03,   330.699E-06,       15.0413
C:/ALETube/PressureUpdate/LargeStep/DeformErode/JobErode.odb,Step-1,Increment      8: Step Time =,    80.00,"TUBE-1",           226,  -2.92791E-03,  -4.05307E-03,   12.5000E-03,NA,NA,"",   5.31905E-03,            0.,   13.8353E-03,   319.047E-06,       63.9401
C:/ALETube/PressureUpdate/LargeStep/DeformErode/JobErode.odb,Step-1,Increment      8: Step Time =,    80.00,"TUBE-1",           167,  -3.50742E-03,  -3.56342E-03,   12.5000E-03,NA,NA,"",   5.31896E-03,            0.,   13.8356E-03,   318.959E-06,       64.0707
C:/ALETube/PressureUpdate/LargeStep/DeformErode/JobErode.odb,Step-1,Increment      8: Step Time =,    80.00,"TUBE-1",           331,  -3.50742E-03,  -3.56342E-03,   25.0000E-03,NA,NA,"",   5.31931E-03,            0.,   26.3321E-03,   319.309E-06,       148.450
C:/ALETube/PressureUpdate/LargeStep/DeformErode/JobErode.odb,Step-1,Increment      8: Step Time =,    80.00,"TUBE-1",           390,  -2.92791E-03,  -4.05307E-03,   25.0000E-03,NA,NA,"",   5.31940E-03,  -433.681E-21,   26.3321E-03,   319.398E-06,       148.323
C:/ALETube/PressureUpdate/LargeStep/DeformErode/JobErode.odb,Step-1,Increment      8: Step Time =,    80.00,"TUBE-1",           554,  -2.92791E-03,  -4.05307E-03,   37.5000E-03,NA,NA,"",   5.31974E-03,            0.,   38.8320E-03,   319.745E-06,       229.782
C:/ALETube/PressureUpdate/LargeStep/DeformErode/JobErode.odb,Step-1,Increment      8: Step Time =,    80.00,"TUBE-1",           495,  -3.50742E-03,  -3.56342E-03,   37.5000E-03,NA,NA,"",   5.31966E-03,   163.327E-12,   38.8320E-03,   319.656E-06,       229.974
C:/ALETube/PressureUpdate/LargeStep/DeformErode/JobErode.odb,Step-1,Increment      8: Step Time =,    80.00,"TUBE-1",           718,  -2.92791E-03,  -4.05307E-03,   50.0000E-03,NA,NA,"",   5.32009E-03,            0.,   51.3316E-03,   320.095E-06,       312.913
C:/ALETube/PressureUpdate/LargeStep/DeformErode/JobErode.odb,Step-1,Increment      8: Step Time =,    80.00,"TUBE-1",           659,  -3.50742E-03,  -3.56342E-03,   50.0000E-03,NA,NA,"",   5.32000E-03,   433.681E-21,   51.3316E-03,   320.005E-06,       313.147
C:/ALETube/PressureUpdate/LargeStep/DeformErode/JobErode.odb,Step-1,Increment      8: Step Time =,    80.00,"TUBE-1",           823,  -3.50742E-03,  -3.56342E-03,      62.5E-03,NA,NA,"",   5.32035E-03,   433.681E-21,   63.8312E-03,   320.352E-06,       395.674
C:/ALETube/PressureUpdate/LargeStep/DeformErode/JobErode.odb,Step-1,Increment      8: Step Time =,    80.00,"TUBE-1",           882,  -2.92791E-03,  -4.05307E-03,      62.5E-03,NA,NA,"",   5.32044E-03,            0.,   63.8312E-03,   320.443E-06,       395.384
C:/ALETube/PressureUpdate/LargeStep/DeformErode/JobErode.odb,Step-1,Increment      8: Step Time =,    80.00,"TUBE-1",          1046,  -2.92791E-03,  -4.05307E-03,   75.0000E-03,NA,NA,"",   5.32079E-03,  -433.681E-21,   76.3306E-03,   320.792E-06,       478.037
C:/ALETube/PressureUpdate/LargeStep/DeformErode/JobErode.odb,Step-1,Increment      8: Step Time =,    80.00,"TUBE-1",           987,  -3.50742E-03,  -3.56342E-03,   75.0000E-03,NA,NA,"",   5.32070E-03,            0.,   76.3306E-03,   320.700E-06,       478.377
C:/ALETube/PressureUpdate/LargeStep/DeformErode/JobErode.odb,Step-1,Increment      8: Step Time =,    80.00,"TUBE-1",          1210,  -2.92791E-03,  -4.05307E-03,   87.5000E-03,NA,NA,"",   5.32114E-03,            0.,   88.8299E-03,   321.141E-06,       560.619
C:/ALETube/PressureUpdate/LargeStep/DeformErode/JobErode.odb,Step-1,Increment      8: Step Time =,    80.00,"TUBE-1",          1151,  -3.50742E-03,  -3.56342E-03,   87.5000E-03,NA,NA,"",   5.32105E-03,            0.,   88.8299E-03,   321.048E-06,       561.012
C:/ALETube/PressureUpdate/LargeStep/DeformErode/JobErode.odb,Step-1,Increment      8: Step Time =,    80.00,"TUBE-1",          1374,  -2.92791E-03,  -4.05307E-03,   100.000E-03,NA,NA,"",   5.32149E-03,  -433.681E-21,   101.329E-03,   321.490E-06,       643.203
C:/ALETube/PressureUpdate/LargeStep/DeformErode/JobErode.odb,Step-1,Increment      8: Step Time =,    80.00,"TUBE-1",          1315,  -3.50742E-03,  -3.56342E-03,   100.000E-03,NA,NA,"",   5.32140E-03,  -433.681E-21,   101.329E-03,   321.396E-06,       643.647
C:/ALETube/PressureUpdate/LargeStep/DeformErode/JobErode.odb,Step-1,Increment      8: Step Time =,    80.00,"TUBE-1",          1538,  -2.92791E-03,  -4.05307E-03,   112.500E-03,NA,NA,"",   5.32184E-03,  -433.681E-21,   113.828E-03,   321.838E-06,       725.765
C:/ALETube/PressureUpdate/LargeStep/DeformErode/JobErode.odb,Step-1,Increment      8: Step Time =,    80.00,"TUBE-1",          1479,  -3.50742E-03,  -3.56342E-03,   112.500E-03,NA,NA,"",   5.32174E-03,  -163.327E-12,   113.828E-03,   321.744E-06,       726.261
C:/ALETube/PressureUpdate/LargeStep/DeformErode/JobErode.odb,Step-1,Increment      8: Step Time =,    80.00,"TUBE-1",          1643,  -3.50742E-03,  -3.56342E-03,      125.E-03,NA,NA,"",   5.32209E-03,            0.,   126.327E-03,   322.091E-06,       808.860
C:/ALETube/PressureUpdate/LargeStep/DeformErode/JobErode.odb,Step-1,Increment      8: Step Time =,    80.00,"TUBE-1",          1702,  -2.92791E-03,  -4.05307E-03,      125.E-03,NA,NA,"",   5.32219E-03,            0.,   126.327E-03,   322.187E-06,       808.313
C:/ALETube/PressureUpdate/LargeStep/DeformErode/JobErode.odb,Step-1,Increment      8: Step Time =,    80.00,"TUBE-1",          1866,  -2.92791E-03,  -4.05307E-03,   137.500E-03,NA,NA,"",   5.32254E-03,  -433.681E-21,   138.826E-03,   322.536E-06,       890.845
C:/ALETube/PressureUpdate/LargeStep/DeformErode/JobErode.odb,Step-1,Increment      8: Step Time =,    80.00,"TUBE-1",          1807,  -3.50742E-03,  -3.56342E-03,   137.500E-03,NA,NA,"",   5.32244E-03,            0.,   138.826E-03,   322.439E-06,       891.443
C:/ALETube/PressureUpdate/LargeStep/DeformErode/JobErode.odb,Step-1,Increment      8: Step Time =,    80.00,"TUBE-1",          2030,  -2.92791E-03,  -4.05307E-03,   150.000E-03,NA,NA,"",   5.32288E-03,            0.,   151.325E-03,   322.884E-06,       973.360
C:/ALETube/PressureUpdate/LargeStep/DeformErode/JobErode.odb,Step-1,Increment      8: Step Time =,    80.00,"TUBE-1",          1971,  -3.50742E-03,  -3.56342E-03,   150.000E-03,NA,NA,"",   5.32279E-03,  -433.681E-21,   151.325E-03,   322.787E-06,       974.009
C:/ALETube/PressureUpdate/LargeStep/DeformErode/JobErode.odb,Step-1,Increment      8: Step Time =,    80.00,"TUBE-1",          2194,  -2.92791E-03,  -4.05307E-03,   162.500E-03,NA,NA,"",   5.32323E-03,            0.,   163.824E-03,   323.233E-06,   1.05586E+03
C:/ALETube/PressureUpdate/LargeStep/DeformErode/JobErode.odb,Step-1,Increment      8: Step Time =,    80.00,"TUBE-1",          2135,  -3.50742E-03,  -3.56342E-03,   162.500E-03,NA,NA,"",   5.32313E-03,   433.681E-21,   163.824E-03,   323.134E-06,   1.05656E+03
C:/ALETube/PressureUpdate/LargeStep/DeformErode/JobErode.odb,Step-1,Increment      8: Step Time =,    80.00,"TUBE-1",          2358,  -2.92791E-03,  -4.05307E-03,   175.000E-03,NA,NA,"",   5.32358E-03,            0.,   176.322E-03,   323.581E-06,   1.13834E+03
C:/ALETube/PressureUpdate/LargeStep/DeformErode/JobErode.odb,Step-1,Increment      8: Step Time =,    80.00,"TUBE-1",          2299,  -3.50742E-03,  -3.56342E-03,   175.000E-03,NA,NA,"",   5.32348E-03,  -433.681E-21,   176.322E-03,   323.482E-06,   1.13909E+03
C:/ALETube/PressureUpdate/LargeStep/DeformErode/JobErode.odb,Step-1,Increment      8: Step Time =,    80.00,"TUBE-1",          2463,  -3.50742E-03,  -3.56342E-03,     187.5E-03,NA,NA,"",   5.32383E-03,   163.327E-12,   188.821E-03,   323.830E-06,   1.22161E+03
C:/ALETube/PressureUpdate/LargeStep/DeformErode/JobErode.odb,Step-1,Increment      8: Step Time =,    80.00,"TUBE-1",          2522,  -2.92791E-03,  -4.05307E-03,     187.5E-03,NA,NA,"",   5.32393E-03,   433.681E-21,   188.821E-03,   323.930E-06,   1.22081E+03
C:/ALETube/PressureUpdate/LargeStep/DeformErode/JobErode.odb,Step-1,Increment      8: Step Time =,    80.00,"TUBE-1",          2686,  -2.92791E-03,  -4.05307E-03,   200.000E-03,NA,NA,"",   5.32428E-03,            0.,   201.319E-03,   324.278E-06,   1.30326E+03
C:/ALETube/PressureUpdate/LargeStep/DeformErode/JobErode.odb,Step-1,Increment      8: Step Time =,    80.00,"TUBE-1",          2627,  -3.50742E-03,  -3.56342E-03,   200.000E-03,NA,NA,"",   5.32418E-03,            0.,   201.319E-03,   324.177E-06,   1.30411E+03
C:/ALETube/PressureUpdate/LargeStep/DeformErode/JobErode.odb,Step-1,Increment      8: Step Time =,    80.00,"TUBE-1",          2850,  -2.92791E-03,  -4.05307E-03,   212.500E-03,NA,NA,"",   5.32463E-03,            0.,   213.817E-03,   324.627E-06,   1.38569E+03
C:/ALETube/PressureUpdate/LargeStep/DeformErode/JobErode.odb,Step-1,Increment      8: Step Time =,    80.00,"TUBE-1",          2791,  -3.50742E-03,  -3.56342E-03,   212.500E-03,NA,NA,"",   5.32452E-03,            0.,   213.817E-03,   324.525E-06,   1.38660E+03
C:/ALETube/PressureUpdate/LargeStep/DeformErode/JobErode.odb,Step-1,Increment      8: Step Time =,    80.00,"TUBE-1",          3014,  -2.92791E-03,  -4.05307E-03,   225.000E-03,NA,NA,"",   5.32498E-03,  -433.681E-21,   226.316E-03,   324.975E-06,   1.46811E+03
C:/ALETube/PressureUpdate/LargeStep/DeformErode/JobErode.odb,Step-1,Increment      8: Step Time =,    80.00,"TUBE-1",          2955,  -3.50742E-03,  -3.56342E-03,   225.000E-03,NA,NA,"",   5.32487E-03,            0.,   226.316E-03,   324.872E-06,   1.46907E+03
C:/ALETube/PressureUpdate/LargeStep/DeformErode/JobErode.odb,Step-1,Increment      8: Step Time =,    80.00,"TUBE-1",          3178,  -2.92791E-03,  -4.05307E-03,   237.500E-03,NA,NA,"",   5.32532E-03,   433.681E-21,   238.814E-03,   325.323E-06,   1.55051E+03
C:/ALETube/PressureUpdate/LargeStep/DeformErode/JobErode.odb,Step-1,Increment      8: Step Time =,    80.00,"TUBE-1",          3119,  -3.50742E-03,  -3.56342E-03,   237.500E-03,NA,NA,"",   5.32522E-03,            0.,   238.814E-03,   325.219E-06,   1.55152E+03
C:/ALETube/PressureUpdate/LargeStep/DeformErode/JobErode.odb,Step-1,Increment      8: Step Time =,    80.00,"TUBE-1",          3283,  -3.50742E-03,  -3.56342E-03,      250.E-03,NA,NA,"",   5.32557E-03,            0.,   251.312E-03,   325.567E-06,   1.63395E+03
C:/ALETube/PressureUpdate/LargeStep/DeformErode/JobErode.odb,Step-1,Increment      8: Step Time =,    80.00,"TUBE-1",          3342,  -2.92791E-03,  -4.05307E-03,      250.E-03,NA,NA,"",   5.32567E-03,  -433.681E-21,   251.312E-03,   325.672E-06,   1.63289E+03
C:/ALETube/PressureUpdate/LargeStep/DeformErode/JobErode.odb,Step-1,Increment      8: Step Time =,    80.00,"TUBE-1",          3506,  -2.92791E-03,  -4.05307E-03,   262.500E-03,NA,NA,"",   5.32602E-03,            0.,   263.810E-03,   326.020E-06,   1.71526E+03
C:/ALETube/PressureUpdate/LargeStep/DeformErode/JobErode.odb,Step-1,Increment      8: Step Time =,    80.00,"TUBE-1",          3447,  -3.50742E-03,  -3.56342E-03,   262.500E-03,NA,NA,"",   5.32591E-03,   433.681E-21,   263.810E-03,   325.914E-06,   1.71637E+03
C:/ALETube/PressureUpdate/LargeStep/DeformErode/JobErode.odb,Step-1,Increment      8: Step Time =,    80.00,"TUBE-1",          3670,  -2.92791E-03,  -4.05307E-03,   275.000E-03,NA,NA,"",   5.32637E-03,  -433.681E-21,   276.307E-03,   326.368E-06,   1.79762E+03
C:/ALETube/PressureUpdate/LargeStep/DeformErode/JobErode.odb,Step-1,Increment      8: Step Time =,    80.00,"TUBE-1",          3611,  -3.50742E-03,  -3.56342E-03,   275.000E-03,NA,NA,"",   5.32626E-03,            0.,   276.307E-03,   326.262E-06,   1.79878E+03
C:/ALETube/PressureUpdate/LargeStep/DeformErode/JobErode.odb,Step-1,Increment      8: Step Time =,    80.00,"TUBE-1",          3834,  -2.92791E-03,  -4.05307E-03,   287.500E-03,NA,NA,"",   5.32672E-03,            0.,   288.805E-03,   326.716E-06,   1.87995E+03
C:/ALETube/PressureUpdate/LargeStep/DeformErode/JobErode.odb,Step-1,Increment      8: Step Time =,    80.00,"TUBE-1",          3775,  -3.50742E-03,  -3.56342E-03,   287.500E-03,NA,NA,"",   5.32661E-03,   433.681E-21,   288.805E-03,   326.609E-06,   1.88116E+03
C:/ALETube/PressureUpdate/LargeStep/DeformErode/JobErode.odb,Step-1,Increment      8: Step Time =,    80.00,"TUBE-1",          3998,  -2.92791E-03,  -4.05307E-03,   300.000E-03,NA,NA,"",   5.32706E-03,  -433.681E-21,   301.302E-03,   327.064E-06,   1.96227E+03
C:/ALETube/PressureUpdate/LargeStep/DeformErode/JobErode.odb,Step-1,Increment      8: Step Time =,    80.00,"TUBE-1",          3939,  -3.50742E-03,  -3.56342E-03,   300.000E-03,NA,NA,"",   5.32696E-03,            0.,   301.302E-03,   326.956E-06,   1.96354E+03
C:/ALETube/PressureUpdate/LargeStep/DeformErode/JobErode.odb,Step-1,Increment      8: Step Time =,    80.00,"TUBE-1",          4103,  -3.50742E-03,  -3.56342E-03,     312.5E-03,NA,NA,"",   5.32730E-03,            0.,   313.800E-03,   327.303E-06,   2.04589E+03
C:/ALETube/PressureUpdate/LargeStep/DeformErode/JobErode.odb,Step-1,Increment      8: Step Time =,    80.00,"TUBE-1",          4162,  -2.92791E-03,  -4.05307E-03,     312.5E-03,NA,NA,"",   5.32741E-03,            0.,   313.800E-03,   327.413E-06,   2.04457E+03
C:/ALETube/PressureUpdate/LargeStep/DeformErode/JobErode.odb,Step-1,Increment      8: Step Time =,    80.00,"TUBE-1",          4326,  -2.92791E-03,  -4.05307E-03,   325.000E-03,NA,NA,"",   5.32776E-03,            0.,   326.297E-03,   327.761E-06,   2.12686E+03
C:/ALETube/PressureUpdate/LargeStep/DeformErode/JobErode.odb,Step-1,Increment      8: Step Time =,    80.00,"TUBE-1",          4267,  -3.50742E-03,  -3.56342E-03,   325.000E-03,NA,NA,"",   5.32765E-03,  -433.681E-21,   326.297E-03,   327.650E-06,   2.12823E+03
C:/ALETube/PressureUpdate/LargeStep/DeformErode/JobErode.odb,Step-1,Increment      8: Step Time =,    80.00,"TUBE-1",          4490,  -2.92791E-03,  -4.05307E-03,   337.500E-03,NA,NA,"",   5.32811E-03,            0.,   338.794E-03,   328.109E-06,   2.20913E+03
C:/ALETube/PressureUpdate/LargeStep/DeformErode/JobErode.odb,Step-1,Increment      8: Step Time =,    80.00,"TUBE-1",          4431,  -3.50742E-03,  -3.56342E-03,   337.500E-03,NA,NA,"",   5.32800E-03,   433.681E-21,   338.794E-03,   327.998E-06,   2.21055E+03
C:/ALETube/PressureUpdate/LargeStep/DeformErode/JobErode.odb,Step-1,Increment      8: Step Time =,    80.00,"TUBE-1",          4654,  -2.92791E-03,  -4.05307E-03,   350.000E-03,NA,NA,"",   5.32846E-03,            0.,   351.292E-03,   328.457E-06,   2.29139E+03
C:/ALETube/PressureUpdate/LargeStep/DeformErode/JobErode.odb,Step-1,Increment      8: Step Time =,    80.00,"TUBE-1",          4595,  -3.50742E-03,  -3.56342E-03,   350.000E-03,NA,NA,"",   5.32834E-03,            0.,   351.292E-03,   328.345E-06,   2.29286E+03
C:/ALETube/PressureUpdate/LargeStep/DeformErode/JobErode.odb,Step-1,Increment      8: Step Time =,    80.00,"TUBE-1",          4818,  -2.92791E-03,  -4.05307E-03,   362.500E-03,NA,NA,"",   5.32880E-03,   433.681E-21,   363.789E-03,   328.805E-06,   2.37363E+03
C:/ALETube/PressureUpdate/LargeStep/DeformErode/JobErode.odb,Step-1,Increment      8: Step Time =,    80.00,"TUBE-1",          4759,  -3.50742E-03,  -3.56342E-03,   362.500E-03,NA,NA,"",   5.32869E-03,            0.,   363.789E-03,   328.692E-06,   2.37514E+03
C:/ALETube/PressureUpdate/LargeStep/DeformErode/JobErode.odb,Step-1,Increment      8: Step Time =,    80.00,"TUBE-1",          4923,  -3.50742E-03,  -3.56342E-03,      375.E-03,NA,NA,"",   5.32904E-03,  -433.681E-21,   376.285E-03,   329.039E-06,   2.45742E+03
C:/ALETube/PressureUpdate/LargeStep/DeformErode/JobErode.odb,Step-1,Increment      8: Step Time =,    80.00,"TUBE-1",          4982,  -2.92791E-03,  -4.05307E-03,      375.E-03,NA,NA,"",   5.32915E-03,  -433.681E-21,   376.285E-03,   329.153E-06,   2.45585E+03
C:/ALETube/PressureUpdate/LargeStep/DeformErode/JobErode.odb,Step-1,Increment      8: Step Time =,    80.00,"TUBE-1",          5146,  -2.92791E-03,  -4.05307E-03,   387.500E-03,NA,NA,"",   5.32950E-03,            0.,   388.782E-03,   329.501E-06,   2.53805E+03
C:/ALETube/PressureUpdate/LargeStep/DeformErode/JobErode.odb,Step-1,Increment      8: Step Time =,    80.00,"TUBE-1",          5087,  -3.50742E-03,  -3.56342E-03,   387.500E-03,NA,NA,"",   5.32939E-03,   433.681E-21,   388.782E-03,   329.386E-06,   2.53967E+03
C:/ALETube/PressureUpdate/LargeStep/DeformErode/JobErode.odb,Step-1,Increment      8: Step Time =,    80.00,"TUBE-1",          5310,  -2.92791E-03,  -4.05307E-03,   400.000E-03,NA,NA,"",   5.32985E-03,  -433.681E-21,   401.279E-03,   329.848E-06,   2.62024E+03
C:/ALETube/PressureUpdate/LargeStep/DeformErode/JobErode.odb,Step-1,Increment      8: Step Time =,    80.00,"TUBE-1",          5251,  -3.50742E-03,  -3.56342E-03,   400.000E-03,NA,NA,"",   5.32973E-03,            0.,   401.279E-03,   329.733E-06,   2.62191E+03
C:/ALETube/PressureUpdate/LargeStep/DeformErode/JobErode.odb,Step-1,Increment      8: Step Time =,    80.00,"TUBE-1",          5474,  -2.92791E-03,  -4.05307E-03,   412.500E-03,NA,NA,"",   5.33020E-03,  -433.681E-21,   413.776E-03,   330.196E-06,   2.70242E+03
C:/ALETube/PressureUpdate/LargeStep/DeformErode/JobErode.odb,Step-1,Increment      8: Step Time =,    80.00,"TUBE-1",          5415,  -3.50742E-03,  -3.56342E-03,   412.500E-03,NA,NA,"",   5.33008E-03,            0.,   413.776E-03,   330.080E-06,   2.70414E+03
C:/ALETube/PressureUpdate/LargeStep/DeformErode/JobErode.odb,Step-1,Increment      8: Step Time =,    80.00,"TUBE-1",          5638,  -2.92791E-03,  -4.05307E-03,   425.000E-03,NA,NA,"",   5.33054E-03,            0.,   426.272E-03,   330.544E-06,   2.78457E+03
C:/ALETube/PressureUpdate/LargeStep/DeformErode/JobErode.odb,Step-1,Increment      8: Step Time =,    80.00,"TUBE-1",          5579,  -3.50742E-03,  -3.56342E-03,   425.000E-03,NA,NA,"",   5.33043E-03,            0.,   426.272E-03,   330.427E-06,   2.78635E+03
C:/ALETube/PressureUpdate/LargeStep/DeformErode/JobErode.odb,Step-1,Increment      8: Step Time =,    80.00,"TUBE-1",          5743,  -3.50742E-03,  -3.56342E-03,     437.5E-03,NA,NA,"",   5.33077E-03,            0.,   438.768E-03,   330.774E-06,   2.86854E+03
C:/ALETube/PressureUpdate/LargeStep/DeformErode/JobErode.odb,Step-1,Increment      8: Step Time =,    80.00,"TUBE-1",          5802,  -2.92791E-03,  -4.05307E-03,     437.5E-03,NA,NA,"",   5.33089E-03,            0.,   438.768E-03,   330.892E-06,   2.86671E+03
C:/ALETube/PressureUpdate/LargeStep/DeformErode/JobErode.odb,Step-1,Increment      8: Step Time =,    80.00,"TUBE-1",          5966,  -2.92791E-03,  -4.05307E-03,   450.000E-03,NA,NA,"",   5.33124E-03,  -433.681E-21,   451.265E-03,   331.240E-06,   2.94884E+03
C:/ALETube/PressureUpdate/LargeStep/DeformErode/JobErode.odb,Step-1,Increment      8: Step Time =,    80.00,"TUBE-1",          5907,  -3.50742E-03,  -3.56342E-03,   450.000E-03,NA,NA,"",   5.33112E-03,            0.,   451.265E-03,   331.120E-06,   2.95071E+03
C:/ALETube/PressureUpdate/LargeStep/DeformErode/JobErode.odb,Step-1,Increment      8: Step Time =,    80.00,"TUBE-1",          6130,  -2.92791E-03,  -4.05307E-03,   462.500E-03,NA,NA,"",   5.33159E-03,            0.,   463.761E-03,   331.587E-06,   3.03095E+03
C:/ALETube/PressureUpdate/LargeStep/DeformErode/JobErode.odb,Step-1,Increment      8: Step Time =,    80.00,"TUBE-1",          6071,  -3.50742E-03,  -3.56342E-03,   462.500E-03,NA,NA,"",   5.33147E-03,  -433.681E-21,   463.761E-03,   331.467E-06,   3.03287E+03
C:/ALETube/PressureUpdate/LargeStep/DeformErode/JobErode.odb,Step-1,Increment      8: Step Time =,    80.00,"TUBE-1",          6294,  -2.92791E-03,  -4.05307E-03,   475.000E-03,NA,NA,"",   5.33193E-03,   433.681E-21,   476.257E-03,   331.935E-06,   3.11304E+03
C:/ALETube/PressureUpdate/LargeStep/DeformErode/JobErode.odb,Step-1,Increment      8: Step Time =,    80.00,"TUBE-1",          6235,  -3.50742E-03,  -3.56342E-03,   475.000E-03,NA,NA,"",   5.33181E-03,            0.,   476.257E-03,   331.814E-06,   3.11502E+03
C:/ALETube/PressureUpdate/LargeStep/DeformErode/JobErode.odb,Step-1,Increment      8: Step Time =,    80.00,"TUBE-1",          6458,  -2.92791E-03,  -4.05307E-03,   487.500E-03,NA,NA,"",   5.33228E-03,  -188.736E-12,   488.753E-03,   332.282E-06,   3.19511E+03
C:/ALETube/PressureUpdate/LargeStep/DeformErode/JobErode.odb,Step-1,Increment      8: Step Time =,    80.00,"TUBE-1",          6399,  -3.50742E-03,  -3.56342E-03,   487.500E-03,NA,NA,"",   5.33216E-03,  -163.327E-12,   488.753E-03,   332.161E-06,   3.19714E+03
C:/ALETube/PressureUpdate/LargeStep/DeformErode/JobErode.odb,Step-1,Increment      8: Step Time =,    80.00,"TUBE-1",          6563,  -3.50742E-03,  -3.56342E-03,      500.E-03,NA,NA,"",   5.33251E-03,   165.935E-12,   501.249E-03,   332.507E-06,   3.27925E+03
C:/ALETube/PressureUpdate/LargeStep/DeformErode/JobErode.odb,Step-1,Increment      8: Step Time =,    80.00,"TUBE-1",          6622,  -2.92791E-03,  -4.05307E-03,      500.E-03,NA,NA,"",   5.33263E-03,            0.,   501.249E-03,   332.630E-06,   3.27717E+03
C:/ALETube/PressureUpdate/LargeStep/DeformErode/JobErode.odb,Step-1,Increment      8: Step Time =,    80.00,"TUBE-1",          6786,  -2.92791E-03,  -4.05307E-03,   512.500E-03,NA,NA,"",   5.33298E-03,            0.,   513.745E-03,   332.978E-06,   3.35922E+03
C:/ALETube/PressureUpdate/LargeStep/DeformErode/JobErode.odb,Step-1,Increment      8: Step Time =,    80.00,"TUBE-1",          6727,  -3.50742E-03,  -3.56342E-03,   512.500E-03,NA,NA,"",   5.33285E-03,            0.,   513.745E-03,   332.854E-06,   3.36135E+03
C:/ALETube/PressureUpdate/LargeStep/DeformErode/JobErode.odb,Step-1,Increment      8: Step Time =,    80.00,"TUBE-1",          6950,  -2.92791E-03,  -4.05307E-03,   525.000E-03,NA,NA,"",   5.33333E-03,            0.,   526.240E-03,   333.325E-06,   3.44124E+03
C:/ALETube/PressureUpdate/LargeStep/DeformErode/JobErode.odb,Step-1,Increment      8: Step Time =,    80.00,"TUBE-1",          6891,  -3.50742E-03,  -3.56342E-03,   525.000E-03,NA,NA,"",   5.33320E-03,   433.681E-21,   526.240E-03,   333.201E-06,   3.44342E+03
C:/ALETube/PressureUpdate/LargeStep/DeformErode/JobErode.odb,Step-1,Increment      8: Step Time =,    80.00,"TUBE-1",          7114,  -2.92791E-03,  -4.05307E-03,   537.500E-03,NA,NA,"",   5.33367E-03,            0.,   538.736E-03,   333.673E-06,   3.52326E+03
C:/ALETube/PressureUpdate/LargeStep/DeformErode/JobErode.odb,Step-1,Increment      8: Step Time =,    80.00,"TUBE-1",          7055,  -3.50742E-03,  -3.56342E-03,   537.500E-03,NA,NA,"",   5.33355E-03,            0.,   538.736E-03,   333.547E-06,   3.52549E+03
C:/ALETube/PressureUpdate/LargeStep/DeformErode/JobErode.odb,Step-1,Increment      8: Step Time =,    80.00,"TUBE-1",          7278,  -2.92791E-03,  -4.05307E-03,   550.000E-03,NA,NA,"",   5.33402E-03,  -188.736E-12,   551.231E-03,   334.020E-06,   3.60525E+03
C:/ALETube/PressureUpdate/LargeStep/DeformErode/JobErode.odb,Step-1,Increment      8: Step Time =,    80.00,"TUBE-1",          7219,  -3.50742E-03,  -3.56342E-03,   550.000E-03,NA,NA,"",   5.33389E-03,            0.,   551.231E-03,   333.894E-06,   3.60753E+03
C:/ALETube/PressureUpdate/LargeStep/DeformErode/JobErode.odb,Step-1,Increment      8: Step Time =,    80.00,"TUBE-1",          7383,  -3.50742E-03,  -3.56342E-03,     562.5E-03,NA,NA,"",   5.33424E-03,   433.681E-21,   563.727E-03,   334.240E-06,   3.68956E+03
C:/ALETube/PressureUpdate/LargeStep/DeformErode/JobErode.odb,Step-1,Increment      8: Step Time =,    80.00,"TUBE-1",          7442,  -2.92791E-03,  -4.05307E-03,     562.5E-03,NA,NA,"",   5.33437E-03,            0.,   563.727E-03,   334.367E-06,   3.68723E+03
C:/ALETube/PressureUpdate/LargeStep/DeformErode/JobErode.odb,Step-1,Increment      8: Step Time =,    80.00,"TUBE-1",          7606,  -2.92791E-03,  -4.05307E-03,   575.000E-03,NA,NA,"",   5.33471E-03,            0.,   576.222E-03,   334.715E-06,   3.76919E+03
C:/ALETube/PressureUpdate/LargeStep/DeformErode/JobErode.odb,Step-1,Increment      8: Step Time =,    80.00,"TUBE-1",          7547,  -3.50742E-03,  -3.56342E-03,   575.000E-03,NA,NA,"",   5.33459E-03,  -163.327E-12,   576.222E-03,   334.587E-06,   3.77157E+03
C:/ALETube/PressureUpdate/LargeStep/DeformErode/JobErode.odb,Step-1,Increment      8: Step Time =,    80.00,"TUBE-1",          7770,  -2.92791E-03,  -4.05307E-03,   587.500E-03,NA,NA,"",   5.33506E-03,  -433.681E-21,   588.717E-03,   335.062E-06,   3.85114E+03
C:/ALETube/PressureUpdate/LargeStep/DeformErode/JobErode.odb,Step-1,Increment      8: Step Time =,    80.00,"TUBE-1",          7711,  -3.50742E-03,  -3.56342E-03,   587.500E-03,NA,NA,"",   5.33493E-03,            0.,   588.717E-03,   334.933E-06,   3.85357E+03
C:/ALETube/PressureUpdate/LargeStep/DeformErode/JobErode.odb,Step-1,Increment      8: Step Time =,    80.00,"TUBE-1",          7934,  -2.92791E-03,  -4.05307E-03,   600.000E-03,NA,NA,"",   5.33541E-03,  -867.362E-21,   601.212E-03,   335.409E-06,   3.93307E+03
C:/ALETube/PressureUpdate/LargeStep/DeformErode/JobErode.odb,Step-1,Increment      8: Step Time =,    80.00,"TUBE-1",          7875,  -3.50742E-03,  -3.56342E-03,   600.000E-03,NA,NA,"",   5.33528E-03,            0.,   601.212E-03,   335.279E-06,   3.93555E+03
C:/ALETube/PressureUpdate/LargeStep/DeformErode/JobErode.odb,Step-1,Increment      8: Step Time =,    80.00,"TUBE-1",          8098,  -2.92791E-03,  -4.05307E-03,   612.500E-03,NA,NA,"",   5.33576E-03,   272.682E-12,   613.707E-03,   335.757E-06,   4.01498E+03
C:/ALETube/PressureUpdate/LargeStep/DeformErode/JobErode.odb,Step-1,Increment      8: Step Time =,    80.00,"TUBE-1",          8039,  -3.50742E-03,  -3.56342E-03,   612.500E-03,NA,NA,"",   5.33563E-03,  -433.681E-21,   613.707E-03,   335.626E-06,   4.01751E+03
C:/ALETube/PressureUpdate/LargeStep/DeformErode/JobErode.odb,Step-1,Increment      8: Step Time =,    80.00,"TUBE-1",          8203,  -3.50742E-03,  -3.56342E-03,      625.E-03,NA,NA,"",   5.33597E-03,            0.,   626.202E-03,   335.972E-06,   4.09946E+03
C:/ALETube/PressureUpdate/LargeStep/DeformErode/JobErode.odb,Step-1,Increment      8: Step Time =,    80.00,"TUBE-1",          8262,  -2.92791E-03,  -4.05307E-03,      625.E-03,NA,NA,"",   5.33610E-03,  -433.681E-21,   626.202E-03,   336.104E-06,   4.09688E+03
C:/ALETube/PressureUpdate/LargeStep/DeformErode/JobErode.odb,Step-1,Increment      8: Step Time =,    80.00,"TUBE-1",          8426,  -2.92791E-03,  -4.05307E-03,   637.500E-03,NA,NA,"",   5.33645E-03,            0.,   638.696E-03,   336.451E-06,   4.17876E+03
C:/ALETube/PressureUpdate/LargeStep/DeformErode/JobErode.odb,Step-1,Increment      8: Step Time =,    80.00,"TUBE-1",          8367,  -3.50742E-03,  -3.56342E-03,   637.500E-03,NA,NA,"",   5.33632E-03,   163.327E-12,   638.696E-03,   336.318E-06,   4.18139E+03
C:/ALETube/PressureUpdate/LargeStep/DeformErode/JobErode.odb,Step-1,Increment      8: Step Time =,    80.00,"TUBE-1",          8590,  -2.92791E-03,  -4.05307E-03,   650.000E-03,NA,NA,"",   5.33680E-03,            0.,   651.191E-03,   336.798E-06,   4.26063E+03
C:/ALETube/PressureUpdate/LargeStep/DeformErode/JobErode.odb,Step-1,Increment      8: Step Time =,    80.00,"TUBE-1",          8531,  -3.50742E-03,  -3.56342E-03,   650.000E-03,NA,NA,"",   5.33666E-03,            0.,   651.191E-03,   336.665E-06,   4.26331E+03
C:/ALETube/PressureUpdate/LargeStep/DeformErode/JobErode.odb,Step-1,Increment      8: Step Time =,    80.00,"TUBE-1",          8754,  -2.92791E-03,  -4.05307E-03,   662.500E-03,NA,NA,"",   5.33715E-03,            0.,   663.685E-03,   337.145E-06,   4.34248E+03
C:/ALETube/PressureUpdate/LargeStep/DeformErode/JobErode.odb,Step-1,Increment      8: Step Time =,    80.00,"TUBE-1",          8695,  -3.50742E-03,  -3.56342E-03,   662.500E-03,NA,NA,"",   5.33701E-03,            0.,   663.685E-03,   337.011E-06,   4.34521E+03
C:/ALETube/PressureUpdate/LargeStep/DeformErode/JobErode.odb,Step-1,Increment      8: Step Time =,    80.00,"TUBE-1",          8918,  -2.92791E-03,  -4.05307E-03,   675.000E-03,NA,NA,"",   5.33749E-03,            0.,   676.180E-03,   337.492E-06,   4.42431E+03
C:/ALETube/PressureUpdate/LargeStep/DeformErode/JobErode.odb,Step-1,Increment      8: Step Time =,    80.00,"TUBE-1",          8859,  -3.50742E-03,  -3.56342E-03,   675.000E-03,NA,NA,"",   5.33736E-03,   433.681E-21,   676.180E-03,   337.357E-06,   4.42709E+03
C:/ALETube/PressureUpdate/LargeStep/DeformErode/JobErode.odb,Step-1,Increment      8: Step Time =,    80.00,"TUBE-1",          9023,  -3.50742E-03,  -3.56342E-03,     687.5E-03,NA,NA,"",   5.33770E-03,  -433.681E-21,   688.674E-03,   337.703E-06,   4.50896E+03
C:/ALETube/PressureUpdate/LargeStep/DeformErode/JobErode.odb,Step-1,Increment      8: Step Time =,    80.00,"TUBE-1",          9082,  -2.92791E-03,  -4.05307E-03,     687.5E-03,NA,NA,"",   5.33784E-03,            0.,   688.674E-03,   337.839E-06,   4.50613E+03
C:/ALETube/PressureUpdate/LargeStep/DeformErode/JobErode.odb,Step-1,Increment      8: Step Time =,    80.00,"TUBE-1",          9246,  -2.92791E-03,  -4.05307E-03,   700.000E-03,NA,NA,"",   5.33819E-03,  -433.681E-21,   701.168E-03,   338.186E-06,   4.58793E+03
C:/ALETube/PressureUpdate/LargeStep/DeformErode/JobErode.odb,Step-1,Increment      8: Step Time =,    80.00,"TUBE-1",          9187,  -3.50742E-03,  -3.56342E-03,   700.000E-03,NA,NA,"",   5.33805E-03,  -433.681E-21,   701.168E-03,   338.049E-06,   4.59081E+03
C:/ALETube/PressureUpdate/LargeStep/DeformErode/JobErode.odb,Step-1,Increment      8: Step Time =,    80.00,"TUBE-1",          9410,  -2.92791E-03,  -4.05307E-03,   712.500E-03,NA,NA,"",   5.33853E-03,            0.,   713.662E-03,   338.533E-06,   4.66971E+03
C:/ALETube/PressureUpdate/LargeStep/DeformErode/JobErode.odb,Step-1,Increment      8: Step Time =,    80.00,"TUBE-1",          9351,  -3.50742E-03,  -3.56342E-03,   712.500E-03,NA,NA,"",   5.33840E-03,            0.,   713.662E-03,   338.395E-06,   4.67265E+03
C:/ALETube/PressureUpdate/LargeStep/DeformErode/JobErode.odb,Step-1,Increment      8: Step Time =,    80.00,"TUBE-1",          9574,  -2.92791E-03,  -4.05307E-03,   725.000E-03,NA,NA,"",   5.33888E-03,   433.681E-21,   726.156E-03,   338.880E-06,   4.75148E+03
C:/ALETube/PressureUpdate/LargeStep/DeformErode/JobErode.odb,Step-1,Increment      8: Step Time =,    80.00,"TUBE-1",          9515,  -3.50742E-03,  -3.56342E-03,   725.000E-03,NA,NA,"",   5.33874E-03,  -433.681E-21,   726.156E-03,   338.742E-06,   4.75446E+03
C:/ALETube/PressureUpdate/LargeStep/DeformErode/JobErode.odb,Step-1,Increment      8: Step Time =,    80.00,"TUBE-1",          9738,  -2.92791E-03,  -4.05307E-03,   737.500E-03,NA,NA,"",   5.33923E-03,  -433.681E-21,   738.650E-03,   339.227E-06,   4.83323E+03
C:/ALETube/PressureUpdate/LargeStep/DeformErode/JobErode.odb,Step-1,Increment      8: Step Time =,    80.00,"TUBE-1",          9679,  -3.50742E-03,  -3.56342E-03,   737.500E-03,NA,NA,"",   5.33909E-03,   163.327E-12,   738.650E-03,   339.088E-06,   4.83627E+03
C:/ALETube/PressureUpdate/LargeStep/DeformErode/JobErode.odb,Step-1,Increment      8: Step Time =,    80.00,"TUBE-1",          9843,  -3.50742E-03,  -3.56342E-03,      750.E-03,NA,NA,"",   5.33943E-03,            0.,   751.144E-03,   339.433E-06,   4.91805E+03
C:/ALETube/PressureUpdate/LargeStep/DeformErode/JobErode.odb,Step-1,Increment      8: Step Time =,    80.00,"TUBE-1",          9902,  -2.92791E-03,  -4.05307E-03,      750.E-03,NA,NA,"",   5.33957E-03,  -433.681E-21,   751.144E-03,   339.574E-06,   4.91497E+03
C:/ALETube/PressureUpdate/LargeStep/DeformErode/JobErode.odb,Step-1,Increment      8: Step Time =,    80.00,"TUBE-1",         10066,  -2.92791E-03,  -4.05307E-03,   762.500E-03,NA,NA,"",   5.33992E-03,            0.,   763.638E-03,   339.921E-06,   4.99669E+03
C:/ALETube/PressureUpdate/LargeStep/DeformErode/JobErode.odb,Step-1,Increment      8: Step Time =,    80.00,"TUBE-1",         10007,  -3.50742E-03,  -3.56342E-03,   762.500E-03,NA,NA,"",   5.33978E-03,            0.,   763.638E-03,   339.779E-06,   4.99982E+03
C:/ALETube/PressureUpdate/LargeStep/DeformErode/JobErode.odb,Step-1,Increment      8: Step Time =,    80.00,"TUBE-1",         10230,  -2.92791E-03,  -4.05307E-03,   775.000E-03,NA,NA,"",   5.34027E-03,            0.,   776.131E-03,   340.268E-06,   5.07839E+03
C:/ALETube/PressureUpdate/LargeStep/DeformErode/JobErode.odb,Step-1,Increment      8: Step Time =,    80.00,"TUBE-1",         10171,  -3.50742E-03,  -3.56342E-03,   775.000E-03,NA,NA,"",   5.34013E-03,            0.,   776.131E-03,   340.125E-06,   5.08158E+03
C:/ALETube/PressureUpdate/LargeStep/DeformErode/JobErode.odb,Step-1,Increment      8: Step Time =,    80.00,"TUBE-1",         10394,  -2.92791E-03,  -4.05307E-03,   787.500E-03,NA,NA,"",   5.34061E-03,  -433.681E-21,   788.625E-03,   340.615E-06,   5.16008E+03
C:/ALETube/PressureUpdate/LargeStep/DeformErode/JobErode.odb,Step-1,Increment      8: Step Time =,    80.00,"TUBE-1",         10335,  -3.50742E-03,  -3.56342E-03,   787.500E-03,NA,NA,"",   5.34047E-03,            0.,   788.625E-03,   340.471E-06,   5.16331E+03
C:/ALETube/PressureUpdate/LargeStep/DeformErode/JobErode.odb,Step-1,Increment      8: Step Time =,    80.00,"TUBE-1",         10558,  -2.92791E-03,  -4.05307E-03,   800.000E-03,NA,NA,"",   5.34096E-03,  -433.681E-21,   801.118E-03,   340.961E-06,   5.24175E+03
C:/ALETube/PressureUpdate/LargeStep/DeformErode/JobErode.odb,Step-1,Increment      8: Step Time =,    80.00,"TUBE-1",         10499,  -3.50742E-03,  -3.56342E-03,   800.000E-03,NA,NA,"",   5.34082E-03,   163.327E-12,   801.118E-03,   340.817E-06,   5.24504E+03
C:/ALETube/PressureUpdate/LargeStep/DeformErode/JobErode.odb,Step-1,Increment      8: Step Time =,    80.00,"TUBE-1",         10663,  -3.50742E-03,  -3.56342E-03,     812.5E-03,NA,NA,"",   5.34116E-03,            0.,   813.611E-03,   341.163E-06,   5.32674E+03
C:/ALETube/PressureUpdate/LargeStep/DeformErode/JobErode.odb,Step-1,Increment      8: Step Time =,    80.00,"TUBE-1",         10722,  -2.92791E-03,  -4.05307E-03,     812.5E-03,NA,NA,"",   5.34131E-03,            0.,   813.611E-03,   341.308E-06,   5.32341E+03
C:/ALETube/PressureUpdate/LargeStep/DeformErode/JobErode.odb,Step-1,Increment      8: Step Time =,    80.00,"TUBE-1",         10886,  -2.92791E-03,  -4.05307E-03,   825.000E-03,NA,NA,"",   5.34165E-03,  -272.682E-12,   826.104E-03,   341.655E-06,   5.40505E+03
C:/ALETube/PressureUpdate/LargeStep/DeformErode/JobErode.odb,Step-1,Increment      8: Step Time =,    80.00,"TUBE-1",         10827,  -3.50742E-03,  -3.56342E-03,   825.000E-03,NA,NA,"",   5.34151E-03,            0.,   826.104E-03,   341.509E-06,   5.40843E+03
C:/ALETube/PressureUpdate/LargeStep/DeformErode/JobErode.odb,Step-1,Increment      8: Step Time =,    80.00,"TUBE-1",         11050,  -2.92791E-03,  -4.05307E-03,   837.500E-03,NA,NA,"",   5.34200E-03,  -433.681E-21,   838.597E-03,   342.001E-06,   5.48667E+03
C:/ALETube/PressureUpdate/LargeStep/DeformErode/JobErode.odb,Step-1,Increment      8: Step Time =,    80.00,"TUBE-1",         10991,  -3.50742E-03,  -3.56342E-03,   837.500E-03,NA,NA,"",   5.34185E-03,            0.,   838.597E-03,   341.854E-06,   5.49011E+03
C:/ALETube/PressureUpdate/LargeStep/DeformErode/JobErode.odb,Step-1,Increment      8: Step Time =,    80.00,"TUBE-1",         11214,  -2.92791E-03,  -4.05307E-03,   850.000E-03,NA,NA,"",   5.34235E-03,            0.,   851.090E-03,   342.348E-06,   5.56828E+03
C:/ALETube/PressureUpdate/LargeStep/DeformErode/JobErode.odb,Step-1,Increment      8: Step Time =,    80.00,"TUBE-1",         11155,  -3.50742E-03,  -3.56342E-03,   850.000E-03,NA,NA,"",   5.34220E-03,            0.,   851.090E-03,   342.200E-06,   5.57176E+03
C:/ALETube/PressureUpdate/LargeStep/DeformErode/JobErode.odb,Step-1,Increment      8: Step Time =,    80.00,"TUBE-1",         11378,  -2.92791E-03,  -4.05307E-03,   862.500E-03,NA,NA,"",   5.34269E-03,            0.,   863.583E-03,   342.694E-06,   5.64987E+03
C:/ALETube/PressureUpdate/LargeStep/DeformErode/JobErode.odb,Step-1,Increment      8: Step Time =,    80.00,"TUBE-1",         11319,  -3.50742E-03,  -3.56342E-03,   862.500E-03,NA,NA,"",   5.34255E-03,            0.,   863.583E-03,   342.546E-06,   5.65340E+03
C:/ALETube/PressureUpdate/LargeStep/DeformErode/JobErode.odb,Step-1,Increment      8: Step Time =,    80.00,"TUBE-1",         11483,  -3.50742E-03,  -3.56342E-03,      875.E-03,NA,NA,"",   5.34289E-03,            0.,   876.076E-03,   342.891E-06,   5.73503E+03
C:/ALETube/PressureUpdate/LargeStep/DeformErode/JobErode.odb,Step-1,Increment      8: Step Time =,    80.00,"TUBE-1",         11542,  -2.92791E-03,  -4.05307E-03,      875.E-03,NA,NA,"",   5.34304E-03,  -433.681E-21,   876.076E-03,   343.041E-06,   5.73145E+03
C:/ALETube/PressureUpdate/LargeStep/DeformErode/JobErode.odb,Step-1,Increment      8: Step Time =,    80.00,"TUBE-1",         11706,  -2.92791E-03,  -4.05307E-03,   887.500E-03,NA,NA,"",   5.34339E-03,            0.,   888.569E-03,   343.387E-06,   5.81301E+03
C:/ALETube/PressureUpdate/LargeStep/DeformErode/JobErode.odb,Step-1,Increment      8: Step Time =,    80.00,"TUBE-1",         11647,  -3.50742E-03,  -3.56342E-03,   887.500E-03,NA,NA,"",   5.34324E-03,            0.,   888.569E-03,   343.237E-06,   5.81664E+03
C:/ALETube/PressureUpdate/LargeStep/DeformErode/JobErode.odb,Step-1,Increment      8: Step Time =,    80.00,"TUBE-1",         11870,  -2.92791E-03,  -4.05307E-03,   900.000E-03,NA,NA,"",   5.34373E-03,            0.,   901.061E-03,   343.734E-06,   5.89455E+03
C:/ALETube/PressureUpdate/LargeStep/DeformErode/JobErode.odb,Step-1,Increment      8: Step Time =,    80.00,"TUBE-1",         11811,  -3.50742E-03,  -3.56342E-03,   900.000E-03,NA,NA,"",   5.34358E-03,            0.,   901.061E-03,   343.582E-06,   5.89823E+03
C:/ALETube/PressureUpdate/LargeStep/DeformErode/JobErode.odb,Step-1,Increment      8: Step Time =,    80.00,"TUBE-1",         12034,  -2.92791E-03,  -4.05307E-03,   912.500E-03,NA,NA,"",   5.34408E-03,            0.,   913.554E-03,   344.080E-06,   5.97608E+03
C:/ALETube/PressureUpdate/LargeStep/DeformErode/JobErode.odb,Step-1,Increment      8: Step Time =,    80.00,"TUBE-1",         11975,  -3.50742E-03,  -3.56342E-03,   912.500E-03,NA,NA,"",   5.34393E-03,  -433.681E-21,   913.554E-03,   343.928E-06,   5.97981E+03
C:/ALETube/PressureUpdate/LargeStep/DeformErode/JobErode.odb,Step-1,Increment      8: Step Time =,    80.00,"TUBE-1",         12198,  -2.92791E-03,  -4.05307E-03,   925.000E-03,NA,NA,"",   5.34443E-03,            0.,   926.046E-03,   344.427E-06,   6.05759E+03
C:/ALETube/PressureUpdate/LargeStep/DeformErode/JobErode.odb,Step-1,Increment      8: Step Time =,    80.00,"TUBE-1",         12139,  -3.50742E-03,  -3.56342E-03,   925.000E-03,NA,NA,"",   5.34427E-03,            0.,   926.046E-03,   344.273E-06,   6.06137E+03
C:/ALETube/PressureUpdate/LargeStep/DeformErode/JobErode.odb,Step-1,Increment      8: Step Time =,    80.00,"TUBE-1",         12303,  -3.50742E-03,  -3.56342E-03,     937.5E-03,NA,NA,"",   5.34462E-03,            0.,   938.538E-03,   344.619E-06,   6.14291E+03
C:/ALETube/PressureUpdate/LargeStep/DeformErode/JobErode.odb,Step-1,Increment      8: Step Time =,    80.00,"TUBE-1",         12362,  -2.92791E-03,  -4.05307E-03,     937.5E-03,NA,NA,"",   5.34477E-03,            0.,   938.538E-03,   344.773E-06,   6.13908E+03
C:/ALETube/PressureUpdate/LargeStep/DeformErode/JobErode.odb,Step-1,Increment      8: Step Time =,    80.00,"TUBE-1",         12526,  -2.92791E-03,  -4.05307E-03,   950.000E-03,NA,NA,"",   5.34512E-03,   272.682E-12,   951.030E-03,   345.119E-06,   6.22056E+03
C:/ALETube/PressureUpdate/LargeStep/DeformErode/JobErode.odb,Step-1,Increment      8: Step Time =,    80.00,"TUBE-1",         12467,  -3.50742E-03,  -3.56342E-03,   950.000E-03,NA,NA,"",   5.34496E-03,   433.681E-21,   951.030E-03,   344.964E-06,   6.22444E+03
C:/ALETube/PressureUpdate/LargeStep/DeformErode/JobErode.odb,Step-1,Increment      8: Step Time =,    80.00,"TUBE-1",         12690,  -2.92791E-03,  -4.05307E-03,   962.500E-03,NA,NA,"",   5.34547E-03,            0.,   963.522E-03,   345.465E-06,   6.30202E+03
C:/ALETube/PressureUpdate/LargeStep/DeformErode/JobErode.odb,Step-1,Increment      8: Step Time =,    80.00,"TUBE-1",         12631,  -3.50742E-03,  -3.56342E-03,   962.500E-03,NA,NA,"",   5.34531E-03,            0.,   963.522E-03,   345.310E-06,   6.30595E+03
C:/ALETube/PressureUpdate/LargeStep/DeformErode/JobErode.odb,Step-1,Increment      8: Step Time =,    80.00,"TUBE-1",         12854,  -2.92791E-03,  -4.05307E-03,   975.000E-03,NA,NA,"",   5.34581E-03,            0.,   976.014E-03,   345.812E-06,   6.38347E+03
C:/ALETube/PressureUpdate/LargeStep/DeformErode/JobErode.odb,Step-1,Increment      8: Step Time =,    80.00,"TUBE-1",         12795,  -3.50742E-03,  -3.56342E-03,   975.000E-03,NA,NA,"",   5.34566E-03,            0.,   976.014E-03,   345.655E-06,   6.38745E+03
C:/ALETube/PressureUpdate/LargeStep/DeformErode/JobErode.odb,Step-1,Increment      8: Step Time =,    80.00,"TUBE-1",         13018,  -2.92791E-03,  -4.05307E-03,   987.500E-03,NA,NA,"",   5.34616E-03,            0.,   988.506E-03,   346.158E-06,   6.46490E+03
C:/ALETube/PressureUpdate/LargeStep/DeformErode/JobErode.odb,Step-1,Increment      8: Step Time =,    80.00,"TUBE-1",         12959,  -3.50742E-03,  -3.56342E-03,   987.500E-03,NA,NA,"",   5.34600E-03,  -433.681E-21,   988.506E-03,   346.000E-06,   6.46893E+03
C:/ALETube/PressureUpdate/LargeStep/DeformErode/JobErode.odb,Step-1,Increment      8: Step Time =,    80.00,"TUBE-1",         13123,  -3.50742E-03,  -3.56342E-03,            1.,NA,NA,"",   5.34635E-03,            0.,       1.00100,   346.346E-06,   6.55039E+03
C:/ALETube/PressureUpdate/LargeStep/DeformErode/JobErode.odb,Step-1,Increment      8: Step Time =,    80.00,"TUBE-1",         13182,  -2.92791E-03,  -4.05307E-03,            1.,NA,NA,"",   5.34650E-03,            0.,       1.00100,   346.504E-06,   6.54632E+03
C:/ALETube/PressureUpdate/LargeStep/DeformErode/JobErode.odb,Step-1,Increment      8: Step Time =,    80.00,"TUBE-1",         13346,  -2.92791E-03,  -4.05307E-03,       1.01250,NA,NA,"",   5.34685E-03,  -433.681E-21,       1.01349,   346.850E-06,   6.62772E+03
C:/ALETube/PressureUpdate/LargeStep/DeformErode/JobErode.odb,Step-1,Increment      8: Step Time =,    80.00,"TUBE-1",         13287,  -3.50742E-03,  -3.56342E-03,       1.01250,NA,NA,"",   5.34669E-03,            0.,       1.01349,   346.691E-06,   6.63184E+03
C:/ALETube/PressureUpdate/LargeStep/DeformErode/JobErode.odb,Step-1,Increment      8: Step Time =,    80.00,"TUBE-1",         13510,  -2.92791E-03,  -4.05307E-03,       1.02500,NA,NA,"",   5.34720E-03,            0.,       1.02598,   347.196E-06,   6.70910E+03
C:/ALETube/PressureUpdate/LargeStep/DeformErode/JobErode.odb,Step-1,Increment      8: Step Time =,    80.00,"TUBE-1",         13451,  -3.50742E-03,  -3.56342E-03,       1.02500,NA,NA,"",   5.34704E-03,            0.,       1.02598,   347.036E-06,   6.71327E+03
C:/ALETube/PressureUpdate/LargeStep/DeformErode/JobErode.odb,Step-1,Increment      8: Step Time =,    80.00,"TUBE-1",         13615,  -3.50742E-03,  -3.56342E-03,       1.03750,NA,NA,"",   5.34738E-03,  -433.681E-21,       1.03847,   347.381E-06,   6.79469E+03
C:/ALETube/PressureUpdate/LargeStep/DeformErode/JobErode.odb,Step-1,Increment      8: Step Time =,    80.00,"TUBE-1",         13674,  -2.92791E-03,  -4.05307E-03,       1.03750,NA,NA,"",   5.34754E-03,  -433.681E-21,       1.03847,   347.542E-06,   6.79047E+03
C:/ALETube/PressureUpdate/LargeStep/DeformErode/JobErode.odb,Step-1,Increment      8: Step Time =,    80.00,"TUBE-1",         13838,  -2.92791E-03,  -4.05307E-03,       1.05000,NA,NA,"",   5.34789E-03,            0.,       1.05096,   347.888E-06,   6.87182E+03
C:/ALETube/PressureUpdate/LargeStep/DeformErode/JobErode.odb,Step-1,Increment      8: Step Time =,    80.00,"TUBE-1",         13779,  -3.50742E-03,  -3.56342E-03,       1.05000,NA,NA,"",   5.34773E-03,  -163.327E-12,       1.05096,   347.726E-06,   6.87609E+03
C:/ALETube/PressureUpdate/LargeStep/DeformErode/JobErode.odb,Step-1,Increment      8: Step Time =,    80.00,"TUBE-1",         14002,  -2.92791E-03,  -4.05307E-03,        1.0625,NA,NA,"",   5.34823E-03,  -433.681E-21,       1.06345,   348.234E-06,   6.95315E+03
C:/ALETube/PressureUpdate/LargeStep/DeformErode/JobErode.odb,Step-1,Increment      8: Step Time =,    80.00,"TUBE-1",         13943,  -3.50742E-03,  -3.56342E-03,        1.0625,NA,NA,"",   5.34807E-03,            0.,       1.06345,   348.071E-06,   6.95748E+03
C:/ALETube/PressureUpdate/LargeStep/DeformErode/JobErode.odb,Step-1,Increment      8: Step Time =,    80.00,"TUBE-1",         14107,  -3.50742E-03,  -3.56342E-03,       1.07500,NA,NA,"",   5.34842E-03,   165.935E-12,       1.07595,   348.416E-06,   7.03884E+03
C:/ALETube/PressureUpdate/LargeStep/DeformErode/JobErode.odb,Step-1,Increment      8: Step Time =,    80.00,"TUBE-1",         14166,  -2.92791E-03,  -4.05307E-03,       1.07500,NA,NA,"",   5.34858E-03,            0.,       1.07595,   348.580E-06,   7.03447E+03
C:/ALETube/PressureUpdate/LargeStep/DeformErode/JobErode.odb,Step-1,Increment      8: Step Time =,    80.00,"TUBE-1",         14330,  -2.92791E-03,  -4.05307E-03,       1.08750,NA,NA,"",   5.34893E-03,  -272.682E-12,       1.08844,   348.926E-06,   7.11577E+03
C:/ALETube/PressureUpdate/LargeStep/DeformErode/JobErode.odb,Step-1,Increment      8: Step Time =,    80.00,"TUBE-1",         14271,  -3.50742E-03,  -3.56342E-03,       1.08750,NA,NA,"",   5.34876E-03,   433.681E-21,       1.08844,   348.761E-06,   7.12020E+03
C:/ALETube/PressureUpdate/LargeStep/DeformErode/JobErode.odb,Step-1,Increment      8: Step Time =,    80.00,"TUBE-1",         14494,  -2.92791E-03,  -4.05307E-03,       1.10000,NA,NA,"",   5.34927E-03,            0.,       1.10093,   349.272E-06,   7.19706E+03
C:/ALETube/PressureUpdate/LargeStep/DeformErode/JobErode.odb,Step-1,Increment      8: Step Time =,    80.00,"TUBE-1",         14435,  -3.50742E-03,  -3.56342E-03,       1.10000,NA,NA,"",   5.34911E-03,            0.,       1.10093,   349.106E-06,   7.20153E+03
C:/ALETube/PressureUpdate/LargeStep/DeformErode/JobErode.odb,Step-1,Increment      8: Step Time =,    80.00,"TUBE-1",         14658,  -2.92791E-03,  -4.05307E-03,       1.11250,NA,NA,"",   5.34962E-03,  -433.681E-21,       1.11342,   349.618E-06,   7.27833E+03
C:/ALETube/PressureUpdate/LargeStep/DeformErode/JobErode.odb,Step-1,Increment      8: Step Time =,    80.00,"TUBE-1",         14599,  -3.50742E-03,  -3.56342E-03,       1.11250,NA,NA,"",   5.34945E-03,   433.681E-21,       1.11342,   349.451E-06,   7.28285E+03
C:/ALETube/PressureUpdate/LargeStep/DeformErode/JobErode.odb,Step-1,Increment      8: Step Time =,    80.00,"TUBE-1",         14822,  -2.92791E-03,  -4.05307E-03,         1.125,NA,NA,"",   5.34996E-03,            0.,       1.12591,   349.964E-06,   7.35959E+03
C:/ALETube/PressureUpdate/LargeStep/DeformErode/JobErode.odb,Step-1,Increment      8: Step Time =,    80.00,"TUBE-1",         14763,  -3.50742E-03,  -3.56342E-03,         1.125,NA,NA,"",   5.34980E-03,   433.681E-21,       1.12591,   349.796E-06,   7.36416E+03
C:/ALETube/PressureUpdate/LargeStep/DeformErode/JobErode.odb,Step-1,Increment      8: Step Time =,    80.00,"TUBE-1",         14927,  -3.50742E-03,  -3.56342E-03,       1.13750,NA,NA,"",   5.35014E-03,            0.,       1.13840,   350.141E-06,   7.44545E+03
C:/ALETube/PressureUpdate/LargeStep/DeformErode/JobErode.odb,Step-1,Increment      8: Step Time =,    80.00,"TUBE-1",         14986,  -2.92791E-03,  -4.05307E-03,       1.13750,NA,NA,"",   5.35031E-03,            0.,       1.13840,   350.309E-06,   7.44083E+03
C:/ALETube/PressureUpdate/LargeStep/DeformErode/JobErode.odb,Step-1,Increment      8: Step Time =,    80.00,"TUBE-1",         15150,  -2.92791E-03,  -4.05307E-03,       1.15000,NA,NA,"",   5.35065E-03,            0.,       1.15089,   350.655E-06,   7.52205E+03
C:/ALETube/PressureUpdate/LargeStep/DeformErode/JobErode.odb,Step-1,Increment      8: Step Time =,    80.00,"TUBE-1",         15091,  -3.50742E-03,  -3.56342E-03,       1.15000,NA,NA,"",   5.35049E-03,            0.,       1.15089,   350.486E-06,   7.52672E+03
C:/ALETube/PressureUpdate/LargeStep/DeformErode/JobErode.odb,Step-1,Increment      8: Step Time =,    80.00,"TUBE-1",         15314,  -2.92791E-03,  -4.05307E-03,       1.16250,NA,NA,"",   5.35100E-03,            0.,       1.16338,   351.001E-06,   7.60326E+03
C:/ALETube/PressureUpdate/LargeStep/DeformErode/JobErode.odb,Step-1,Increment      8: Step Time =,    80.00,"TUBE-1",         15255,  -3.50742E-03,  -3.56342E-03,       1.16250,NA,NA,"",   5.35083E-03,            0.,       1.16338,   350.831E-06,   7.60798E+03
C:/ALETube/PressureUpdate/LargeStep/DeformErode/JobErode.odb,Step-1,Increment      8: Step Time =,    80.00,"TUBE-1",         15478,  -2.92791E-03,  -4.05307E-03,       1.17500,NA,NA,"",   5.35135E-03,  -433.681E-21,       1.17587,   351.346E-06,   7.68445E+03
C:/ALETube/PressureUpdate/LargeStep/DeformErode/JobErode.odb,Step-1,Increment      8: Step Time =,    80.00,"TUBE-1",         15419,  -3.50742E-03,  -3.56342E-03,       1.17500,NA,NA,"",   5.35118E-03,  -165.935E-12,       1.17587,   351.176E-06,   7.68921E+03
C:/ALETube/PressureUpdate/LargeStep/DeformErode/JobErode.odb,Step-1,Increment      8: Step Time =,    80.00,"TUBE-1",         15642,  -2.92791E-03,  -4.05307E-03,        1.1875,NA,NA,"",   5.35169E-03,            0.,       1.18836,   351.692E-06,   7.76563E+03
C:/ALETube/PressureUpdate/LargeStep/DeformErode/JobErode.odb,Step-1,Increment      8: Step Time =,    80.00,"TUBE-1",         15583,  -3.50742E-03,  -3.56342E-03,        1.1875,NA,NA,"",   5.35152E-03,            0.,       1.18836,   351.520E-06,   7.77044E+03
C:/ALETube/PressureUpdate/LargeStep/DeformErode/JobErode.odb,Step-1,Increment      8: Step Time =,    80.00,"TUBE-1",         15747,  -3.50742E-03,  -3.56342E-03,       1.20000,NA,NA,"",   5.35187E-03,   433.681E-21,       1.20085,   351.865E-06,   7.85165E+03
C:/ALETube/PressureUpdate/LargeStep/DeformErode/JobErode.odb,Step-1,Increment      8: Step Time =,    80.00,"TUBE-1",         15806,  -2.92791E-03,  -4.05307E-03,       1.20000,NA,NA,"",   5.35204E-03,            0.,       1.20085,   352.038E-06,   7.84679E+03
C:/ALETube/PressureUpdate/LargeStep/DeformErode/JobErode.odb,Step-1,Increment      8: Step Time =,    80.00,"TUBE-1",         15970,  -2.92791E-03,  -4.05307E-03,       1.21250,NA,NA,"",   5.35238E-03,   433.681E-21,       1.21334,   352.383E-06,   7.92793E+03
C:/ALETube/PressureUpdate/LargeStep/DeformErode/JobErode.odb,Step-1,Increment      8: Step Time =,    80.00,"TUBE-1",         15911,  -3.50742E-03,  -3.56342E-03,       1.21250,NA,NA,"",   5.35221E-03,            0.,       1.21334,   352.210E-06,   7.93284E+03
C:/ALETube/PressureUpdate/LargeStep/DeformErode/JobErode.odb,Step-1,Increment      8: Step Time =,    80.00,"TUBE-1",         16134,  -2.92791E-03,  -4.05307E-03,       1.22500,NA,NA,"",   5.35273E-03,   433.681E-21,       1.22583,   352.729E-06,   8.00906E+03
C:/ALETube/PressureUpdate/LargeStep/DeformErode/JobErode.odb,Step-1,Increment      8: Step Time =,    80.00,"TUBE-1",         16075,  -3.50742E-03,  -3.56342E-03,       1.22500,NA,NA,"",   5.35255E-03,  -165.935E-12,       1.22583,   352.554E-06,   8.01402E+03
C:/ALETube/PressureUpdate/LargeStep/DeformErode/JobErode.odb,Step-1,Increment      8: Step Time =,    80.00,"TUBE-1",         16298,  -2.92791E-03,  -4.05307E-03,       1.23750,NA,NA,"",   5.35307E-03,  -433.681E-21,       1.23832,   353.074E-06,   8.09017E+03
C:/ALETube/PressureUpdate/LargeStep/DeformErode/JobErode.odb,Step-1,Increment      8: Step Time =,    80.00,"TUBE-1",         16239,  -3.50742E-03,  -3.56342E-03,       1.23750,NA,NA,"",   5.35290E-03,            0.,       1.23832,   352.899E-06,   8.09518E+03
C:/ALETube/PressureUpdate/LargeStep/DeformErode/JobErode.odb,Step-1,Increment      8: Step Time =,    80.00,"TUBE-1",         16462,  -2.92791E-03,  -4.05307E-03,          1.25,NA,NA,"",   5.35342E-03,  -433.681E-21,       1.25081,   353.420E-06,   8.17127E+03
C:/ALETube/PressureUpdate/LargeStep/DeformErode/JobErode.odb,Step-1,Increment      8: Step Time =,    80.00,"TUBE-1",         16403,  -3.50742E-03,  -3.56342E-03,          1.25,NA,NA,"",   5.35324E-03,   433.681E-21,       1.25081,   353.244E-06,   8.17632E+03
C:/ALETube/PressureUpdate/LargeStep/DeformErode/JobErode.odb,Step-1,Increment      8: Step Time =,    80.00,"TUBE-1",         16567,  -3.50742E-03,  -3.56342E-03,       1.26250,NA,NA,"",   5.35359E-03,            0.,       1.26330,   353.588E-06,   8.25745E+03
C:/ALETube/PressureUpdate/LargeStep/DeformErode/JobErode.odb,Step-1,Increment      8: Step Time =,    80.00,"TUBE-1",         16626,  -2.92791E-03,  -4.05307E-03,       1.26250,NA,NA,"",   5.35377E-03,  -433.681E-21,       1.26330,   353.765E-06,   8.25234E+03
C:/ALETube/PressureUpdate/LargeStep/DeformErode/JobErode.odb,Step-1,Increment      8: Step Time =,    80.00,"TUBE-1",         16790,  -2.92791E-03,  -4.05307E-03,       1.27500,NA,NA,"",   5.35411E-03,  -433.681E-21,       1.27579,   354.110E-06,   8.33341E+03
C:/ALETube/PressureUpdate/LargeStep/DeformErode/JobErode.odb,Step-1,Increment      8: Step Time =,    80.00,"TUBE-1",         16731,  -3.50742E-03,  -3.56342E-03,       1.27500,NA,NA,"",   5.35393E-03,  -433.681E-21,       1.27579,   353.933E-06,   8.33856E+03
C:/ALETube/PressureUpdate/LargeStep/DeformErode/JobErode.odb,Step-1,Increment      8: Step Time =,    80.00,"TUBE-1",         16954,  -2.92791E-03,  -4.05307E-03,       1.28750,NA,NA,"",   5.35446E-03,            0.,       1.28828,   354.456E-06,   8.41446E+03
C:/ALETube/PressureUpdate/LargeStep/DeformErode/JobErode.odb,Step-1,Increment      8: Step Time =,    80.00,"TUBE-1",         16895,  -3.50742E-03,  -3.56342E-03,       1.28750,NA,NA,"",   5.35428E-03,            0.,       1.28828,   354.277E-06,   8.41966E+03
C:/ALETube/PressureUpdate/LargeStep/DeformErode/JobErode.odb,Step-1,Increment      8: Step Time =,    80.00,"TUBE-1",         17118,  -2.92791E-03,  -4.05307E-03,       1.30000,NA,NA,"",   5.35480E-03,   433.681E-21,       1.30077,   354.801E-06,   8.49549E+03
C:/ALETube/PressureUpdate/LargeStep/DeformErode/JobErode.odb,Step-1,Increment      8: Step Time =,    80.00,"TUBE-1",         17059,  -3.50742E-03,  -3.56342E-03,       1.30000,NA,NA,"",   5.35462E-03,  -433.681E-21,       1.30077,   354.621E-06,   8.50074E+03
C:/ALETube/PressureUpdate/LargeStep/DeformErode/JobErode.odb,Step-1,Increment      8: Step Time =,    80.00,"TUBE-1",         17282,  -2.92791E-03,  -4.05307E-03,        1.3125,NA,NA,"",   5.35515E-03,  -272.682E-12,       1.31326,   355.146E-06,   8.57651E+03
C:/ALETube/PressureUpdate/LargeStep/DeformErode/JobErode.odb,Step-1,Increment      8: Step Time =,    80.00,"TUBE-1",         17223,  -3.50742E-03,  -3.56342E-03,        1.3125,NA,NA,"",   5.35497E-03,  -163.327E-12,       1.31326,   354.966E-06,   8.58181E+03
C:/ALETube/PressureUpdate/LargeStep/DeformErode/JobErode.odb,Step-1,Increment      8: Step Time =,    80.00,"TUBE-1",         17387,  -3.50742E-03,  -3.56342E-03,       1.32500,NA,NA,"",   5.35531E-03,            0.,       1.32575,   355.310E-06,   8.66286E+03
C:/ALETube/PressureUpdate/LargeStep/DeformErode/JobErode.odb,Step-1,Increment      8: Step Time =,    80.00,"TUBE-1",         17446,  -2.92791E-03,  -4.05307E-03,       1.32500,NA,NA,"",   5.35549E-03,            0.,       1.32575,   355.491E-06,   8.65751E+03
C:/ALETube/PressureUpdate/LargeStep/DeformErode/JobErode.odb,Step-1,Increment      8: Step Time =,    80.00,"TUBE-1",         17610,  -2.92791E-03,  -4.05307E-03,       1.33750,NA,NA,"",   5.35584E-03,  -433.681E-21,       1.33823,   355.837E-06,   8.73849E+03
C:/ALETube/PressureUpdate/LargeStep/DeformErode/JobErode.odb,Step-1,Increment      8: Step Time =,    80.00,"TUBE-1",         17551,  -3.50742E-03,  -3.56342E-03,       1.33750,NA,NA,"",   5.35565E-03,  -163.327E-12,       1.33823,   355.655E-06,   8.74389E+03
C:/ALETube/PressureUpdate/LargeStep/DeformErode/JobErode.odb,Step-1,Increment      8: Step Time =,    80.00,"TUBE-1",         17774,  -2.92791E-03,  -4.05307E-03,       1.35000,NA,NA,"",   5.35618E-03,            0.,       1.35072,   356.182E-06,   8.81946E+03
C:/ALETube/PressureUpdate/LargeStep/DeformErode/JobErode.odb,Step-1,Increment      8: Step Time =,    80.00,"TUBE-1",         17715,  -3.50742E-03,  -3.56342E-03,       1.35000,NA,NA,"",   5.35600E-03,            0.,       1.35072,   355.999E-06,   8.82491E+03
C:/ALETube/PressureUpdate/LargeStep/DeformErode/JobErode.odb,Step-1,Increment      8: Step Time =,    80.00,"TUBE-1",         17938,  -2.92791E-03,  -4.05307E-03,       1.36250,NA,NA,"",   5.35653E-03,            0.,       1.36321,   356.527E-06,   8.90041E+03
C:/ALETube/PressureUpdate/LargeStep/DeformErode/JobErode.odb,Step-1,Increment      8: Step Time =,    80.00,"TUBE-1",         17879,  -3.50742E-03,  -3.56342E-03,       1.36250,NA,NA,"",   5.35634E-03,  -433.681E-21,       1.36321,   356.343E-06,   8.90591E+03
C:/ALETube/PressureUpdate/LargeStep/DeformErode/JobErode.odb,Step-1,Increment      8: Step Time =,    80.00,"TUBE-1",         18102,  -2.92791E-03,  -4.05307E-03,         1.375,NA,NA,"",   5.35687E-03,            0.,       1.37570,   356.872E-06,   8.98135E+03
C:/ALETube/PressureUpdate/LargeStep/DeformErode/JobErode.odb,Step-1,Increment      8: Step Time =,    80.00,"TUBE-1",         18043,  -3.50742E-03,  -3.56342E-03,         1.375,NA,NA,"",   5.35669E-03,            0.,       1.37570,   356.687E-06,   8.98690E+03
C:/ALETube/PressureUpdate/LargeStep/DeformErode/JobErode.odb,Step-1,Increment      8: Step Time =,    80.00,"TUBE-1",         18207,  -3.50742E-03,  -3.56342E-03,       1.38750,NA,NA,"",   5.35703E-03,            0.,       1.38819,   357.031E-06,   9.06787E+03
C:/ALETube/PressureUpdate/LargeStep/DeformErode/JobErode.odb,Step-1,Increment      8: Step Time =,    80.00,"TUBE-1",         18266,  -2.92791E-03,  -4.05307E-03,       1.38750,NA,NA,"",   5.35722E-03,            0.,       1.38819,   357.217E-06,   9.06227E+03
C:/ALETube/PressureUpdate/LargeStep/DeformErode/JobErode.odb,Step-1,Increment      8: Step Time =,    80.00,"TUBE-1",         18430,  -2.92791E-03,  -4.05307E-03,       1.40000,NA,NA,"",   5.35756E-03,   433.681E-21,       1.40068,   357.562E-06,   9.14318E+03
C:/ALETube/PressureUpdate/LargeStep/DeformErode/JobErode.odb,Step-1,Increment      8: Step Time =,    80.00,"TUBE-1",         18371,  -3.50742E-03,  -3.56342E-03,       1.40000,NA,NA,"",   5.35738E-03,  -433.681E-21,       1.40068,   357.376E-06,   9.14882E+03
C:/ALETube/PressureUpdate/LargeStep/DeformErode/JobErode.odb,Step-1,Increment      8: Step Time =,    80.00,"TUBE-1",         18594,  -2.92791E-03,  -4.05307E-03,       1.41250,NA,NA,"",   5.35791E-03,            0.,       1.41317,   357.907E-06,   9.22407E+03
C:/ALETube/PressureUpdate/LargeStep/DeformErode/JobErode.odb,Step-1,Increment      8: Step Time =,    80.00,"TUBE-1",         18535,  -3.50742E-03,  -3.56342E-03,       1.41250,NA,NA,"",   5.35772E-03,  -433.681E-21,       1.41317,   357.720E-06,   9.22976E+03
C:/ALETube/PressureUpdate/LargeStep/DeformErode/JobErode.odb,Step-1,Increment      8: Step Time =,    80.00,"TUBE-1",         18758,  -2.92791E-03,  -4.05307E-03,       1.42500,NA,NA,"",   5.35825E-03,  -433.681E-21,       1.42565,   358.252E-06,   9.30494E+03
C:/ALETube/PressureUpdate/LargeStep/DeformErode/JobErode.odb,Step-1,Increment      8: Step Time =,    80.00,"TUBE-1",         18699,  -3.50742E-03,  -3.56342E-03,       1.42500,NA,NA,"",   5.35806E-03,            0.,       1.42565,   358.064E-06,   9.31068E+03
C:/ALETube/PressureUpdate/LargeStep/DeformErode/JobErode.odb,Step-1,Increment      8: Step Time =,    80.00,"TUBE-1",         18922,  -2.92791E-03,  -4.05307E-03,        1.4375,NA,NA,"",   5.35860E-03,            0.,       1.43814,   358.597E-06,   9.38580E+03
C:/ALETube/PressureUpdate/LargeStep/DeformErode/JobErode.odb,Step-1,Increment      8: Step Time =,    80.00,"TUBE-1",         18863,  -3.50742E-03,  -3.56342E-03,        1.4375,NA,NA,"",   5.35841E-03,            0.,       1.43814,   358.408E-06,   9.39159E+03
C:/ALETube/PressureUpdate/LargeStep/DeformErode/JobErode.odb,Step-1,Increment      8: Step Time =,    80.00,"TUBE-1",         19027,  -3.50742E-03,  -3.56342E-03,       1.45000,NA,NA,"",   5.35875E-03,  -165.935E-12,       1.45063,   358.752E-06,   9.47247E+03
C:/ALETube/PressureUpdate/LargeStep/DeformErode/JobErode.odb,Step-1,Increment      8: Step Time =,    80.00,"TUBE-1",         19086,  -2.92791E-03,  -4.05307E-03,       1.45000,NA,NA,"",   5.35894E-03,   433.681E-21,       1.45063,   358.942E-06,   9.46664E+03
C:/ALETube/PressureUpdate/LargeStep/DeformErode/JobErode.odb,Step-1,Increment      8: Step Time =,    80.00,"TUBE-1",         19250,  -2.92791E-03,  -4.05307E-03,       1.46250,NA,NA,"",   5.35929E-03,            0.,       1.46312,   359.287E-06,   9.54747E+03
C:/ALETube/PressureUpdate/LargeStep/DeformErode/JobErode.odb,Step-1,Increment      8: Step Time =,    80.00,"TUBE-1",         19191,  -3.50742E-03,  -3.56342E-03,       1.46250,NA,NA,"",   5.35910E-03,            0.,       1.46312,   359.096E-06,   9.55335E+03
C:/ALETube/PressureUpdate/LargeStep/DeformErode/JobErode.odb,Step-1,Increment      8: Step Time =,    80.00,"TUBE-1",         19414,  -2.92791E-03,  -4.05307E-03,       1.47500,NA,NA,"",   5.35963E-03,   433.681E-21,       1.47561,   359.631E-06,   9.62828E+03
C:/ALETube/PressureUpdate/LargeStep/DeformErode/JobErode.odb,Step-1,Increment      8: Step Time =,    80.00,"TUBE-1",         19355,  -3.50742E-03,  -3.56342E-03,       1.47500,NA,NA,"",   5.35944E-03,            0.,       1.47561,   359.440E-06,   9.63421E+03
C:/ALETube/PressureUpdate/LargeStep/DeformErode/JobErode.odb,Step-1,Increment      8: Step Time =,    80.00,"TUBE-1",         19578,  -2.92791E-03,  -4.05307E-03,       1.48750,NA,NA,"",   5.35998E-03,            0.,       1.48809,   359.976E-06,   9.70907E+03
C:/ALETube/PressureUpdate/LargeStep/DeformErode/JobErode.odb,Step-1,Increment      8: Step Time =,    80.00,"TUBE-1",         19519,  -3.50742E-03,  -3.56342E-03,       1.48750,NA,NA,"",   5.35978E-03,   163.327E-12,       1.48809,   359.784E-06,   9.71505E+03
C:/ALETube/PressureUpdate/LargeStep/DeformErode/JobErode.odb,Step-1,Increment      8: Step Time =,    80.00,"TUBE-1",         19742,  -2.92791E-03,  -4.05307E-03,           1.5,NA,NA,"",   5.36032E-03,            0.,       1.50058,   360.321E-06,   9.78985E+03
C:/ALETube/PressureUpdate/LargeStep/DeformErode/JobErode.odb,Step-1,Increment      8: Step Time =,    80.00,"TUBE-1",         19683,  -3.50742E-03,  -3.56342E-03,           1.5,NA,NA,"",   5.36013E-03,  -433.681E-21,       1.50058,   360.128E-06,   9.79588E+03
C:/ALETube/PressureUpdate/LargeStep/DeformErode/JobErode.odb,Step-1,Increment      8: Step Time =,    80.00,"TUBE-1",         19847,  -3.50742E-03,  -3.56342E-03,       1.51250,NA,NA,"",   5.36047E-03,  -433.681E-21,       1.51307,   360.471E-06,   9.87669E+03
C:/ALETube/PressureUpdate/LargeStep/DeformErode/JobErode.odb,Step-1,Increment      8: Step Time =,    80.00,"TUBE-1",         19906,  -2.92791E-03,  -4.05307E-03,       1.51250,NA,NA,"",   5.36067E-03,            0.,       1.51307,   360.666E-06,   9.87061E+03
C:/ALETube/PressureUpdate/LargeStep/DeformErode/JobErode.odb,Step-1,Increment      8: Step Time =,    80.00,"TUBE-1",         20070,  -2.92791E-03,  -4.05307E-03,       1.52500,NA,NA,"",   5.36101E-03,            0.,       1.52556,   361.010E-06,   9.95136E+03
C:/ALETube/PressureUpdate/LargeStep/DeformErode/JobErode.odb,Step-1,Increment      8: Step Time =,    80.00,"TUBE-1",         20011,  -3.50742E-03,  -3.56342E-03,       1.52500,NA,NA,"",   5.36082E-03,  -433.681E-21,       1.52556,   360.815E-06,   9.95748E+03
C:/ALETube/PressureUpdate/LargeStep/DeformErode/JobErode.odb,Step-1,Increment      8: Step Time =,    80.00,"TUBE-1",         20234,  -2.92791E-03,  -4.05307E-03,       1.53750,NA,NA,"",   5.36135E-03,            0.,       1.53804,   361.355E-06,   10.0321E+03
C:/ALETube/PressureUpdate/LargeStep/DeformErode/JobErode.odb,Step-1,Increment      8: Step Time =,    80.00,"TUBE-1",         20175,  -3.50742E-03,  -3.56342E-03,       1.53750,NA,NA,"",   5.36116E-03,            0.,       1.53804,   361.159E-06,   10.0383E+03
C:/ALETube/PressureUpdate/LargeStep/DeformErode/JobErode.odb,Step-1,Increment      8: Step Time =,    80.00,"TUBE-1",         20398,  -2.92791E-03,  -4.05307E-03,       1.55000,NA,NA,"",   5.36170E-03,  -433.681E-21,       1.55053,   361.700E-06,   10.1128E+03
C:/ALETube/PressureUpdate/LargeStep/DeformErode/JobErode.odb,Step-1,Increment      8: Step Time =,    80.00,"TUBE-1",         20339,  -3.50742E-03,  -3.56342E-03,       1.55000,NA,NA,"",   5.36150E-03,            0.,       1.55053,   361.503E-06,   10.1190E+03
C:/ALETube/PressureUpdate/LargeStep/DeformErode/JobErode.odb,Step-1,Increment      8: Step Time =,    80.00,"TUBE-1",         20562,  -2.92791E-03,  -4.05307E-03,        1.5625,NA,NA,"",   5.36204E-03,            0.,       1.56302,   362.044E-06,   10.1935E+03
C:/ALETube/PressureUpdate/LargeStep/DeformErode/JobErode.odb,Step-1,Increment      8: Step Time =,    80.00,"TUBE-1",         20503,  -3.50742E-03,  -3.56342E-03,        1.5625,NA,NA,"",   5.36185E-03,   433.681E-21,       1.56302,   361.846E-06,   10.1998E+03
C:/ALETube/PressureUpdate/LargeStep/DeformErode/JobErode.odb,Step-1,Increment      8: Step Time =,    80.00,"TUBE-1",         20667,  -3.50742E-03,  -3.56342E-03,       1.57500,NA,NA,"",   5.36219E-03,            0.,       1.57550,   362.190E-06,   10.2805E+03
C:/ALETube/PressureUpdate/LargeStep/DeformErode/JobErode.odb,Step-1,Increment      8: Step Time =,    80.00,"TUBE-1",         20726,  -2.92791E-03,  -4.05307E-03,       1.57500,NA,NA,"",   5.36239E-03,  -433.681E-21,       1.57550,   362.389E-06,   10.2742E+03
C:/ALETube/PressureUpdate/LargeStep/DeformErode/JobErode.odb,Step-1,Increment      8: Step Time =,    80.00,"TUBE-1",         20890,  -2.92791E-03,  -4.05307E-03,       1.58750,NA,NA,"",   5.36273E-03,            0.,       1.58799,   362.733E-06,   10.3549E+03
C:/ALETube/PressureUpdate/LargeStep/DeformErode/JobErode.odb,Step-1,Increment      8: Step Time =,    80.00,"TUBE-1",         20831,  -3.50742E-03,  -3.56342E-03,       1.58750,NA,NA,"",   5.36253E-03,            0.,       1.58799,   362.534E-06,   10.3612E+03
C:/ALETube/PressureUpdate/LargeStep/DeformErode/JobErode.odb,Step-1,Increment      8: Step Time =,    80.00,"TUBE-1",         21054,  -2.92791E-03,  -4.05307E-03,       1.60000,NA,NA,"",   5.36308E-03,            0.,       1.60048,   363.078E-06,   10.4355E+03
C:/ALETube/PressureUpdate/LargeStep/DeformErode/JobErode.odb,Step-1,Increment      8: Step Time =,    80.00,"TUBE-1",         20995,  -3.50742E-03,  -3.56342E-03,       1.60000,NA,NA,"",   5.36288E-03,            0.,       1.60048,   362.877E-06,   10.4420E+03
C:/ALETube/PressureUpdate/LargeStep/DeformErode/JobErode.odb,Step-1,Increment      8: Step Time =,    80.00,"TUBE-1",         21218,  -2.92791E-03,  -4.05307E-03,       1.61250,NA,NA,"",   5.36342E-03,  -433.681E-21,       1.61296,   363.422E-06,   10.5162E+03
C:/ALETube/PressureUpdate/LargeStep/DeformErode/JobErode.odb,Step-1,Increment      8: Step Time =,    80.00,"TUBE-1",         21159,  -3.50742E-03,  -3.56342E-03,       1.61250,NA,NA,"",   5.36322E-03,   433.681E-21,       1.61296,   363.221E-06,   10.5226E+03
C:/ALETube/PressureUpdate/LargeStep/DeformErode/JobErode.odb,Step-1,Increment      8: Step Time =,    80.00,"TUBE-1",         21382,  -2.92791E-03,  -4.05307E-03,         1.625,NA,NA,"",   5.36377E-03,            0.,       1.62545,   363.767E-06,   10.5968E+03
C:/ALETube/PressureUpdate/LargeStep/DeformErode/JobErode.odb,Step-1,Increment      8: Step Time =,    80.00,"TUBE-1",         21323,  -3.50742E-03,  -3.56342E-03,         1.625,NA,NA,"",   5.36356E-03,  -433.681E-21,       1.62545,   363.564E-06,   10.6033E+03
C:/ALETube/PressureUpdate/LargeStep/DeformErode/JobErode.odb,Step-1,Increment      8: Step Time =,    80.00,"TUBE-1",         21487,  -3.50742E-03,  -3.56342E-03,       1.63750,NA,NA,"",   5.36391E-03,  -433.681E-21,       1.63794,   363.908E-06,   10.6840E+03
C:/ALETube/PressureUpdate/LargeStep/DeformErode/JobErode.odb,Step-1,Increment      8: Step Time =,    80.00,"TUBE-1",         21546,  -2.92791E-03,  -4.05307E-03,       1.63750,NA,NA,"",   5.36411E-03,            0.,       1.63794,   364.111E-06,   10.6774E+03
C:/ALETube/PressureUpdate/LargeStep/DeformErode/JobErode.odb,Step-1,Increment      8: Step Time =,    80.00,"TUBE-1",         21710,  -2.92791E-03,  -4.05307E-03,       1.65000,NA,NA,"",   5.36445E-03,            0.,       1.65042,   364.455E-06,   10.7580E+03
C:/ALETube/PressureUpdate/LargeStep/DeformErode/JobErode.odb,Step-1,Increment      8: Step Time =,    80.00,"TUBE-1",         21651,  -3.50742E-03,  -3.56342E-03,       1.65000,NA,NA,"",   5.36425E-03,            0.,       1.65042,   364.251E-06,   10.7646E+03
C:/ALETube/PressureUpdate/LargeStep/DeformErode/JobErode.odb,Step-1,Increment      8: Step Time =,    80.00,"TUBE-1",         21874,  -2.92791E-03,  -4.05307E-03,       1.66250,NA,NA,"",   5.36480E-03,  -433.681E-21,       1.66291,   364.800E-06,   10.8385E+03
C:/ALETube/PressureUpdate/LargeStep/DeformErode/JobErode.odb,Step-1,Increment      8: Step Time =,    80.00,"TUBE-1",         21815,  -3.50742E-03,  -3.56342E-03,       1.66250,NA,NA,"",   5.36460E-03,            0.,       1.66291,   364.595E-06,   10.8452E+03
C:/ALETube/PressureUpdate/LargeStep/DeformErode/JobErode.odb,Step-1,Increment      8: Step Time =,    80.00,"TUBE-1",         22038,  -2.92791E-03,  -4.05307E-03,       1.67500,NA,NA,"",   5.36515E-03,            0.,       1.67540,   365.148E-06,   10.9188E+03
C:/ALETube/PressureUpdate/LargeStep/DeformErode/JobErode.odb,Step-1,Increment      8: Step Time =,    80.00,"TUBE-1",         21979,  -3.50742E-03,  -3.56342E-03,       1.67500,NA,NA,"",   5.36494E-03,            0.,       1.67540,   364.942E-06,   10.9255E+03
C:/ALETube/PressureUpdate/LargeStep/DeformErode/JobErode.odb,Step-1,Increment      8: Step Time =,    80.00,"TUBE-1",         22202,  -2.92791E-03,  -4.05307E-03,        1.6875,NA,NA,"",   5.36549E-03,            0.,       1.68788,   365.492E-06,   10.9994E+03
C:/ALETube/PressureUpdate/LargeStep/DeformErode/JobErode.odb,Step-1,Increment      8: Step Time =,    80.00,"TUBE-1",         22143,  -3.50742E-03,  -3.56342E-03,        1.6875,NA,NA,"",   5.36529E-03,            0.,       1.68788,   365.285E-06,   11.0061E+03
C:/ALETube/PressureUpdate/LargeStep/DeformErode/JobErode.odb,Step-1,Increment      8: Step Time =,    80.00,"TUBE-1",         22307,  -3.50742E-03,  -3.56342E-03,       1.70000,NA,NA,"",   5.36563E-03,            0.,       1.70037,   365.628E-06,   11.0867E+03
C:/ALETube/PressureUpdate/LargeStep/DeformErode/JobErode.odb,Step-1,Increment      8: Step Time =,    80.00,"TUBE-1",         22366,  -2.92791E-03,  -4.05307E-03,       1.70000,NA,NA,"",   5.36584E-03,  -272.682E-12,       1.70037,   365.836E-06,   11.0799E+03
C:/ALETube/PressureUpdate/LargeStep/DeformErode/JobErode.odb,Step-1,Increment      8: Step Time =,    80.00,"TUBE-1",         22530,  -2.92791E-03,  -4.05307E-03,       1.71250,NA,NA,"",   5.36618E-03,            0.,       1.71285,   366.180E-06,   11.1605E+03
C:/ALETube/PressureUpdate/LargeStep/DeformErode/JobErode.odb,Step-1,Increment      8: Step Time =,    80.00,"TUBE-1",         22471,  -3.50742E-03,  -3.56342E-03,       1.71250,NA,NA,"",   5.36597E-03,  -165.935E-12,       1.71285,   365.972E-06,   11.1673E+03
C:/ALETube/PressureUpdate/LargeStep/DeformErode/JobErode.odb,Step-1,Increment      8: Step Time =,    80.00,"TUBE-1",         22694,  -2.92791E-03,  -4.05307E-03,       1.72500,NA,NA,"",   5.36652E-03,            0.,       1.72534,   366.525E-06,   11.2409E+03
C:/ALETube/PressureUpdate/LargeStep/DeformErode/JobErode.odb,Step-1,Increment      8: Step Time =,    80.00,"TUBE-1",         22635,  -3.50742E-03,  -3.56342E-03,       1.72500,NA,NA,"",   5.36632E-03,  -433.681E-21,       1.72534,   366.316E-06,   11.2478E+03
C:/ALETube/PressureUpdate/LargeStep/DeformErode/JobErode.odb,Step-1,Increment      8: Step Time =,    80.00,"TUBE-1",         22858,  -2.92791E-03,  -4.05307E-03,       1.73750,NA,NA,"",   5.36687E-03,   188.736E-12,       1.73783,   366.871E-06,   11.3212E+03
C:/ALETube/PressureUpdate/LargeStep/DeformErode/JobErode.odb,Step-1,Increment      8: Step Time =,    80.00,"TUBE-1",         22799,  -3.50742E-03,  -3.56342E-03,       1.73750,NA,NA,"",   5.36666E-03,  -433.681E-21,       1.73783,   366.662E-06,   11.3281E+03
C:/ALETube/PressureUpdate/LargeStep/DeformErode/JobErode.odb,Step-1,Increment      8: Step Time =,    80.00,"TUBE-1",         23022,  -2.92791E-03,  -4.05307E-03,          1.75,NA,NA,"",   5.36722E-03,            0.,       1.75031,   367.215E-06,   11.4017E+03
C:/ALETube/PressureUpdate/LargeStep/DeformErode/JobErode.odb,Step-1,Increment      8: Step Time =,    80.00,"TUBE-1",         22963,  -3.50742E-03,  -3.56342E-03,          1.75,NA,NA,"",   5.36700E-03,            0.,       1.75031,   367.005E-06,   11.4087E+03
C:/ALETube/PressureUpdate/LargeStep/DeformErode/JobErode.odb,Step-1,Increment      8: Step Time =,    80.00,"TUBE-1",         23127,  -3.50742E-03,  -3.56342E-03,       1.76250,NA,NA,"",   5.36735E-03,            0.,       1.76280,   367.348E-06,   11.4891E+03
C:/ALETube/PressureUpdate/LargeStep/DeformErode/JobErode.odb,Step-1,Increment      8: Step Time =,    80.00,"TUBE-1",         23186,  -2.92791E-03,  -4.05307E-03,       1.76250,NA,NA,"",   5.36756E-03,            0.,       1.76280,   367.559E-06,   11.4821E+03
C:/ALETube/PressureUpdate/LargeStep/DeformErode/JobErode.odb,Step-1,Increment      8: Step Time =,    80.00,"TUBE-1",         23350,  -2.92791E-03,  -4.05307E-03,       1.77500,NA,NA,"",   5.36790E-03,            0.,       1.77528,   367.905E-06,   11.5624E+03
C:/ALETube/PressureUpdate/LargeStep/DeformErode/JobErode.odb,Step-1,Increment      8: Step Time =,    80.00,"TUBE-1",         23291,  -3.50742E-03,  -3.56342E-03,       1.77500,NA,NA,"",   5.36769E-03,            0.,       1.77528,   367.693E-06,   11.5695E+03
C:/ALETube/PressureUpdate/LargeStep/DeformErode/JobErode.odb,Step-1,Increment      8: Step Time =,    80.00,"TUBE-1",         23514,  -2.92791E-03,  -4.05307E-03,       1.78750,NA,NA,"",   5.36825E-03,            0.,       1.78777,   368.249E-06,   11.6428E+03
C:/ALETube/PressureUpdate/LargeStep/DeformErode/JobErode.odb,Step-1,Increment      8: Step Time =,    80.00,"TUBE-1",         23455,  -3.50742E-03,  -3.56342E-03,       1.78750,NA,NA,"",   5.36804E-03,            0.,       1.78777,   368.036E-06,   11.6499E+03
C:/ALETube/PressureUpdate/LargeStep/DeformErode/JobErode.odb,Step-1,Increment      8: Step Time =,    80.00,"TUBE-1",         23678,  -2.92791E-03,  -4.05307E-03,       1.80000,NA,NA,"",   5.36859E-03,  -433.681E-21,       1.80025,   368.594E-06,   11.7232E+03
C:/ALETube/PressureUpdate/LargeStep/DeformErode/JobErode.odb,Step-1,Increment      8: Step Time =,    80.00,"TUBE-1",         23619,  -3.50742E-03,  -3.56342E-03,       1.80000,NA,NA,"",   5.36838E-03,   433.681E-21,       1.80025,   368.380E-06,   11.7303E+03
C:/ALETube/PressureUpdate/LargeStep/DeformErode/JobErode.odb,Step-1,Increment      8: Step Time =,    80.00,"TUBE-1",         23842,  -2.92791E-03,  -4.05307E-03,        1.8125,NA,NA,"",   5.36894E-03,  -433.681E-21,       1.81274,   368.938E-06,   11.8035E+03
C:/ALETube/PressureUpdate/LargeStep/DeformErode/JobErode.odb,Step-1,Increment      8: Step Time =,    80.00,"TUBE-1",         23783,  -3.50742E-03,  -3.56342E-03,        1.8125,NA,NA,"",   5.36872E-03,            0.,       1.81274,   368.723E-06,   11.8107E+03
C:/ALETube/PressureUpdate/LargeStep/DeformErode/JobErode.odb,Step-1,Increment      8: Step Time =,    80.00,"TUBE-1",         23947,  -3.50742E-03,  -3.56342E-03,       1.82500,NA,NA,"",   5.36907E-03,            0.,       1.82522,   369.066E-06,   11.8911E+03
C:/ALETube/PressureUpdate/LargeStep/DeformErode/JobErode.odb,Step-1,Increment      8: Step Time =,    80.00,"TUBE-1",         24006,  -2.92791E-03,  -4.05307E-03,       1.82500,NA,NA,"",   5.36928E-03,            0.,       1.82522,   369.282E-06,   11.8839E+03
C:/ALETube/PressureUpdate/LargeStep/DeformErode/JobErode.odb,Step-1,Increment      8: Step Time =,    80.00,"TUBE-1",         24170,  -2.92791E-03,  -4.05307E-03,       1.83750,NA,NA,"",   5.36963E-03,  -433.681E-21,       1.83771,   369.626E-06,   11.9643E+03
C:/ALETube/PressureUpdate/LargeStep/DeformErode/JobErode.odb,Step-1,Increment      8: Step Time =,    80.00,"TUBE-1",         24111,  -3.50742E-03,  -3.56342E-03,       1.83750,NA,NA,"",   5.36941E-03,            0.,       1.83771,   369.409E-06,   11.9716E+03
C:/ALETube/PressureUpdate/LargeStep/DeformErode/JobErode.odb,Step-1,Increment      8: Step Time =,    80.00,"TUBE-1",         24334,  -2.92791E-03,  -4.05307E-03,       1.85000,NA,NA,"",   5.36997E-03,  -433.681E-21,       1.85019,   369.969E-06,   12.0446E+03
C:/ALETube/PressureUpdate/LargeStep/DeformErode/JobErode.odb,Step-1,Increment      8: Step Time =,    80.00,"TUBE-1",         24275,  -3.50742E-03,  -3.56342E-03,       1.85000,NA,NA,"",   5.36975E-03,            0.,       1.85019,   369.752E-06,   12.0519E+03
C:/ALETube/PressureUpdate/LargeStep/DeformErode/JobErode.odb,Step-1,Increment      8: Step Time =,    80.00,"TUBE-1",         24498,  -2.92791E-03,  -4.05307E-03,       1.86250,NA,NA,"",   5.37031E-03,   433.681E-21,       1.86268,   370.313E-06,   12.1249E+03
C:/ALETube/PressureUpdate/LargeStep/DeformErode/JobErode.odb,Step-1,Increment      8: Step Time =,    80.00,"TUBE-1",         24439,  -3.50742E-03,  -3.56342E-03,       1.86250,NA,NA,"",   5.37009E-03,            0.,       1.86268,   370.095E-06,   12.1323E+03
C:/ALETube/PressureUpdate/LargeStep/DeformErode/JobErode.odb,Step-1,Increment      8: Step Time =,    80.00,"TUBE-1",         24662,  -2.92791E-03,  -4.05307E-03,         1.875,NA,NA,"",   5.37066E-03,            0.,       1.87516,   370.657E-06,   12.2053E+03
C:/ALETube/PressureUpdate/LargeStep/DeformErode/JobErode.odb,Step-1,Increment      8: Step Time =,    80.00,"TUBE-1",         24603,  -3.50742E-03,  -3.56342E-03,         1.875,NA,NA,"",   5.37044E-03,            0.,       1.87516,   370.438E-06,   12.2127E+03
C:/ALETube/PressureUpdate/LargeStep/DeformErode/JobErode.odb,Step-1,Increment      8: Step Time =,    80.00,"TUBE-1",         24767,  -3.50742E-03,  -3.56342E-03,       1.88750,NA,NA,"",   5.37078E-03,            0.,       1.88764,   370.780E-06,   12.2930E+03
C:/ALETube/PressureUpdate/LargeStep/DeformErode/JobErode.odb,Step-1,Increment      8: Step Time =,    80.00,"TUBE-1",         24826,  -2.92791E-03,  -4.05307E-03,       1.88750,NA,NA,"",   5.37100E-03,   433.681E-21,       1.88764,   371.001E-06,   12.2855E+03
C:/ALETube/PressureUpdate/LargeStep/DeformErode/JobErode.odb,Step-1,Increment      8: Step Time =,    80.00,"TUBE-1",         24990,  -2.92791E-03,  -4.05307E-03,       1.90000,NA,NA,"",   5.37134E-03,  -433.681E-21,       1.90013,   371.344E-06,   12.3658E+03
C:/ALETube/PressureUpdate/LargeStep/DeformErode/JobErode.odb,Step-1,Increment      8: Step Time =,    80.00,"TUBE-1",         24931,  -3.50742E-03,  -3.56342E-03,       1.90000,NA,NA,"",   5.37112E-03,            0.,       1.90013,   371.123E-06,   12.3734E+03
C:/ALETube/PressureUpdate/LargeStep/DeformErode/JobErode.odb,Step-1,Increment      8: Step Time =,    80.00,"TUBE-1",         25154,  -2.92791E-03,  -4.05307E-03,       1.91250,NA,NA,"",   5.37169E-03,            0.,       1.91261,   371.688E-06,   12.4461E+03
C:/ALETube/PressureUpdate/LargeStep/DeformErode/JobErode.odb,Step-1,Increment      8: Step Time =,    80.00,"TUBE-1",         25095,  -3.50742E-03,  -3.56342E-03,       1.91250,NA,NA,"",   5.37147E-03,            0.,       1.91261,   371.466E-06,   12.4536E+03
C:/ALETube/PressureUpdate/LargeStep/DeformErode/JobErode.odb,Step-1,Increment      8: Step Time =,    80.00,"TUBE-1",         25318,  -2.92791E-03,  -4.05307E-03,       1.92500,NA,NA,"",   5.37203E-03,            0.,       1.92510,   372.031E-06,   12.5264E+03
C:/ALETube/PressureUpdate/LargeStep/DeformErode/JobErode.odb,Step-1,Increment      8: Step Time =,    80.00,"TUBE-1",         25259,  -3.50742E-03,  -3.56342E-03,       1.92500,NA,NA,"",   5.37181E-03,            0.,       1.92510,   371.809E-06,   12.5340E+03
C:/ALETube/PressureUpdate/LargeStep/DeformErode/JobErode.odb,Step-1,Increment      8: Step Time =,    80.00,"TUBE-1",         25482,  -2.92791E-03,  -4.05307E-03,        1.9375,NA,NA,"",   5.37237E-03,            0.,       1.93758,   372.375E-06,   12.6064E+03
C:/ALETube/PressureUpdate/LargeStep/DeformErode/JobErode.odb,Step-1,Increment      8: Step Time =,    80.00,"TUBE-1",         25423,  -3.50742E-03,  -3.56342E-03,        1.9375,NA,NA,"",   5.37215E-03,            0.,       1.93758,   372.151E-06,   12.6141E+03
C:/ALETube/PressureUpdate/LargeStep/DeformErode/JobErode.odb,Step-1,Increment      8: Step Time =,    80.00,"TUBE-1",         25587,  -3.50742E-03,  -3.56342E-03,       1.95000,NA,NA,"",   5.37249E-03,            0.,       1.95007,   372.494E-06,   12.6948E+03
C:/ALETube/PressureUpdate/LargeStep/DeformErode/JobErode.odb,Step-1,Increment      8: Step Time =,    80.00,"TUBE-1",         25646,  -2.92791E-03,  -4.05307E-03,       1.95000,NA,NA,"",   5.37272E-03,            0.,       1.95007,   372.718E-06,   12.6871E+03
C:/ALETube/PressureUpdate/LargeStep/DeformErode/JobErode.odb,Step-1,Increment      8: Step Time =,    80.00,"TUBE-1",         25810,  -2.92791E-03,  -4.05307E-03,       1.96250,NA,NA,"",   5.37306E-03,  -433.681E-21,       1.96255,   373.061E-06,   12.7662E+03
C:/ALETube/PressureUpdate/LargeStep/DeformErode/JobErode.odb,Step-1,Increment      8: Step Time =,    80.00,"TUBE-1",         25751,  -3.50742E-03,  -3.56342E-03,       1.96250,NA,NA,"",   5.37284E-03,            0.,       1.96255,   372.836E-06,   12.7742E+03
C:/ALETube/PressureUpdate/LargeStep/DeformErode/JobErode.odb,Step-1,Increment      8: Step Time =,    80.00,"TUBE-1",         25974,  -2.92791E-03,  -4.05307E-03,       1.97500,NA,NA,"",   5.37341E-03,            0.,       1.97503,   373.410E-06,   12.8494E+03
C:/ALETube/PressureUpdate/LargeStep/DeformErode/JobErode.odb,Step-1,Increment      8: Step Time =,    80.00,"TUBE-1",         25915,  -3.50742E-03,  -3.56342E-03,       1.97500,NA,NA,"",   5.37318E-03,            0.,       1.97503,   373.183E-06,   12.8566E+03
C:/ALETube/PressureUpdate/LargeStep/DeformErode/JobErode.odb,Step-1,Increment      8: Step Time =,    80.00,"TUBE-1",         26138,  -2.92791E-03,  -4.05307E-03,       1.98750,NA,NA,"",   5.37374E-03,   188.736E-12,       1.98752,   373.736E-06,   12.9209E+03
C:/ALETube/PressureUpdate/LargeStep/DeformErode/JobErode.odb,Step-1,Increment      8: Step Time =,    80.00,"TUBE-1",         26079,  -3.50742E-03,  -3.56342E-03,       1.98750,NA,NA,"",   5.37351E-03,            0.,       1.98752,   373.510E-06,   12.9311E+03
C:/ALETube/PressureUpdate/LargeStep/DeformErode/JobErode.odb,Step-1,Increment      8: Step Time =,    80.00,"TUBE-1",         26302,  -2.92791E-03,  -4.05307E-03,            2.,NA,NA,"",   5.37344E-03,            0.,            2.,   373.443E-06,   12.9215E+03
C:/ALETube/PressureUpdate/LargeStep/DeformErode/JobErode.odb,Step-1,Increment      8: Step Time =,    80.00,"TUBE-1",         26243,  -3.50742E-03,  -3.56342E-03,            2.,NA,NA,"",   5.37330E-03,            0.,            2.,   373.300E-06,   12.9546E+03
C:/ALETube/PressureUpdate/LargeStep/DeformErode/JobErode.odb,Step-1,Increment      9: Step Time =,    90.00,"TUBE-1",            62,  -2.92791E-03,  -4.05307E-03,            0.,NA,NA,"",   5.40904E-03,  -433.681E-21,   1.67721E-03,   409.038E-06,       14.3727
C:/ALETube/PressureUpdate/LargeStep/DeformErode/JobErode.odb,Step-1,Increment      9: Step Time =,    90.00,"TUBE-1",             3,  -3.50742E-03,  -3.56342E-03,            0.,NA,NA,"",   5.40899E-03,   433.681E-21,   1.67720E-03,   408.994E-06,       14.2991
C:/ALETube/PressureUpdate/LargeStep/DeformErode/JobErode.odb,Step-1,Increment      9: Step Time =,    90.00,"TUBE-1",           226,  -2.92791E-03,  -4.05307E-03,   12.5000E-03,NA,NA,"",   5.39052E-03,            0.,   13.8146E-03,   390.519E-06,       62.3348
C:/ALETube/PressureUpdate/LargeStep/DeformErode/JobErode.odb,Step-1,Increment      9: Step Time =,    90.00,"TUBE-1",           167,  -3.50742E-03,  -3.56342E-03,   12.5000E-03,NA,NA,"",   5.39042E-03,            0.,   13.8148E-03,   390.420E-06,       62.5396
C:/ALETube/PressureUpdate/LargeStep/DeformErode/JobErode.odb,Step-1,Increment      9: Step Time =,    90.00,"TUBE-1",           331,  -3.50742E-03,  -3.56342E-03,   25.0000E-03,NA,NA,"",   5.39075E-03,            0.,   26.3089E-03,   390.747E-06,       145.295
C:/ALETube/PressureUpdate/LargeStep/DeformErode/JobErode.odb,Step-1,Increment      9: Step Time =,    90.00,"TUBE-1",           390,  -2.92791E-03,  -4.05307E-03,   25.0000E-03,NA,NA,"",   5.39085E-03,   433.681E-21,   26.3089E-03,   390.847E-06,       145.014
C:/ALETube/PressureUpdate/LargeStep/DeformErode/JobErode.odb,Step-1,Increment      9: Step Time =,    90.00,"TUBE-1",           554,  -2.92791E-03,  -4.05307E-03,   37.5000E-03,NA,NA,"",   5.39117E-03,   433.681E-21,   38.8088E-03,   391.169E-06,       224.783
C:/ALETube/PressureUpdate/LargeStep/DeformErode/JobErode.odb,Step-1,Increment      9: Step Time =,    90.00,"TUBE-1",           495,  -3.50742E-03,  -3.56342E-03,   37.5000E-03,NA,NA,"",   5.39107E-03,            0.,   38.8088E-03,   391.068E-06,       225.218
C:/ALETube/PressureUpdate/LargeStep/DeformErode/JobErode.odb,Step-1,Increment      9: Step Time =,    90.00,"TUBE-1",           718,  -2.92791E-03,  -4.05307E-03,   50.0000E-03,NA,NA,"",   5.39149E-03,            0.,   51.3084E-03,   391.494E-06,       306.208
C:/ALETube/PressureUpdate/LargeStep/DeformErode/JobErode.odb,Step-1,Increment      9: Step Time =,    90.00,"TUBE-1",           659,  -3.50742E-03,  -3.56342E-03,   50.0000E-03,NA,NA,"",   5.39139E-03,            0.,   51.3084E-03,   391.391E-06,       306.766
C:/ALETube/PressureUpdate/LargeStep/DeformErode/JobErode.odb,Step-1,Increment      9: Step Time =,    90.00,"TUBE-1",           823,  -3.50742E-03,  -3.56342E-03,      62.5E-03,NA,NA,"",   5.39171E-03,            0.,   63.8080E-03,   391.714E-06,       387.681
C:/ALETube/PressureUpdate/LargeStep/DeformErode/JobErode.odb,Step-1,Increment      9: Step Time =,    90.00,"TUBE-1",           882,  -2.92791E-03,  -4.05307E-03,      62.5E-03,NA,NA,"",   5.39182E-03,            0.,   63.8080E-03,   391.817E-06,       386.980
C:/ALETube/PressureUpdate/LargeStep/DeformErode/JobErode.odb,Step-1,Increment      9: Step Time =,    90.00,"TUBE-1",          1046,  -2.92791E-03,  -4.05307E-03,   75.0000E-03,NA,NA,"",   5.39214E-03,  -433.681E-21,   76.3074E-03,   392.141E-06,       467.934
C:/ALETube/PressureUpdate/LargeStep/DeformErode/JobErode.odb,Step-1,Increment      9: Step Time =,    90.00,"TUBE-1",           987,  -3.50742E-03,  -3.56342E-03,   75.0000E-03,NA,NA,"",   5.39204E-03,            0.,   76.3074E-03,   392.036E-06,       468.768
C:/ALETube/PressureUpdate/LargeStep/DeformErode/JobErode.odb,Step-1,Increment      9: Step Time =,    90.00,"TUBE-1",          1210,  -2.92791E-03,  -4.05307E-03,   87.5000E-03,NA,NA,"",   5.39246E-03,            0.,   88.8068E-03,   392.465E-06,       548.818
C:/ALETube/PressureUpdate/LargeStep/DeformErode/JobErode.odb,Step-1,Increment      9: Step Time =,    90.00,"TUBE-1",          1151,  -3.50742E-03,  -3.56342E-03,   87.5000E-03,NA,NA,"",   5.39236E-03,            0.,   88.8068E-03,   392.359E-06,       549.790
C:/ALETube/PressureUpdate/LargeStep/DeformErode/JobErode.odb,Step-1,Increment      9: Step Time =,    90.00,"TUBE-1",          1374,  -2.92791E-03,  -4.05307E-03,   100.000E-03,NA,NA,"",   5.39279E-03,            0.,   101.306E-03,   392.788E-06,       629.705
C:/ALETube/PressureUpdate/LargeStep/DeformErode/JobErode.odb,Step-1,Increment      9: Step Time =,    90.00,"TUBE-1",          1315,  -3.50742E-03,  -3.56342E-03,   100.000E-03,NA,NA,"",   5.39268E-03,  -433.681E-21,   101.306E-03,   392.681E-06,       630.812
C:/ALETube/PressureUpdate/LargeStep/DeformErode/JobErode.odb,Step-1,Increment      9: Step Time =,    90.00,"TUBE-1",          1538,  -2.92791E-03,  -4.05307E-03,   112.500E-03,NA,NA,"",   5.39311E-03,            0.,   113.805E-03,   393.112E-06,       710.571
C:/ALETube/PressureUpdate/LargeStep/DeformErode/JobErode.odb,Step-1,Increment      9: Step Time =,    90.00,"TUBE-1",          1479,  -3.50742E-03,  -3.56342E-03,   112.500E-03,NA,NA,"",   5.39300E-03,            0.,   113.805E-03,   393.004E-06,       711.814
C:/ALETube/PressureUpdate/LargeStep/DeformErode/JobErode.odb,Step-1,Increment      9: Step Time =,    90.00,"TUBE-1",          1643,  -3.50742E-03,  -3.56342E-03,      125.E-03,NA,NA,"",   5.39333E-03,            0.,   126.304E-03,   393.326E-06,       792.803
C:/ALETube/PressureUpdate/LargeStep/DeformErode/JobErode.odb,Step-1,Increment      9: Step Time =,    90.00,"TUBE-1",          1702,  -2.92791E-03,  -4.05307E-03,      125.E-03,NA,NA,"",   5.39344E-03,            0.,   126.304E-03,   393.436E-06,       791.424
C:/ALETube/PressureUpdate/LargeStep/DeformErode/JobErode.odb,Step-1,Increment      9: Step Time =,    90.00,"TUBE-1",          1866,  -2.92791E-03,  -4.05307E-03,   137.500E-03,NA,NA,"",   5.39376E-03,  -433.681E-21,   138.803E-03,   393.759E-06,       872.261
C:/ALETube/PressureUpdate/LargeStep/DeformErode/JobErode.odb,Step-1,Increment      9: Step Time =,    90.00,"TUBE-1",          1807,  -3.50742E-03,  -3.56342E-03,   137.500E-03,NA,NA,"",   5.39365E-03,            0.,   138.803E-03,   393.649E-06,       873.776
C:/ALETube/PressureUpdate/LargeStep/DeformErode/JobErode.odb,Step-1,Increment      9: Step Time =,    90.00,"TUBE-1",          2030,  -2.92791E-03,  -4.05307E-03,   150.000E-03,NA,NA,"",   5.39408E-03,            0.,   151.302E-03,   394.083E-06,       953.083
C:/ALETube/PressureUpdate/LargeStep/DeformErode/JobErode.odb,Step-1,Increment      9: Step Time =,    90.00,"TUBE-1",          1971,  -3.50742E-03,  -3.56342E-03,   150.000E-03,NA,NA,"",   5.39397E-03,            0.,   151.302E-03,   393.971E-06,       954.733
C:/ALETube/PressureUpdate/LargeStep/DeformErode/JobErode.odb,Step-1,Increment      9: Step Time =,    90.00,"TUBE-1",          2194,  -2.92791E-03,  -4.05307E-03,   162.500E-03,NA,NA,"",   5.39441E-03,            0.,   163.801E-03,   394.407E-06,   1.03389E+03
C:/ALETube/PressureUpdate/LargeStep/DeformErode/JobErode.odb,Step-1,Increment      9: Step Time =,    90.00,"TUBE-1",          2135,  -3.50742E-03,  -3.56342E-03,   162.500E-03,NA,NA,"",   5.39429E-03,            0.,   163.801E-03,   394.294E-06,   1.03568E+03
C:/ALETube/PressureUpdate/LargeStep/DeformErode/JobErode.odb,Step-1,Increment      9: Step Time =,    90.00,"TUBE-1",          2358,  -2.92791E-03,  -4.05307E-03,   175.000E-03,NA,NA,"",   5.39473E-03,  -433.681E-21,   176.299E-03,   394.730E-06,   1.11468E+03
C:/ALETube/PressureUpdate/LargeStep/DeformErode/JobErode.odb,Step-1,Increment      9: Step Time =,    90.00,"TUBE-1",          2299,  -3.50742E-03,  -3.56342E-03,   175.000E-03,NA,NA,"",   5.39462E-03,  -433.681E-21,   176.299E-03,   394.616E-06,   1.11660E+03
C:/ALETube/PressureUpdate/LargeStep/DeformErode/JobErode.odb,Step-1,Increment      9: Step Time =,    90.00,"TUBE-1",          2463,  -3.50742E-03,  -3.56342E-03,     187.5E-03,NA,NA,"",   5.39494E-03,            0.,   188.798E-03,   394.938E-06,   1.19751E+03
C:/ALETube/PressureUpdate/LargeStep/DeformErode/JobErode.odb,Step-1,Increment      9: Step Time =,    90.00,"TUBE-1",          2522,  -2.92791E-03,  -4.05307E-03,     187.5E-03,NA,NA,"",   5.39505E-03,  -272.682E-12,   188.798E-03,   395.054E-06,   1.19546E+03
C:/ALETube/PressureUpdate/LargeStep/DeformErode/JobErode.odb,Step-1,Increment      9: Step Time =,    90.00,"TUBE-1",          2686,  -2.92791E-03,  -4.05307E-03,   200.000E-03,NA,NA,"",   5.39538E-03,            0.,   201.296E-03,   395.377E-06,   1.27622E+03
C:/ALETube/PressureUpdate/LargeStep/DeformErode/JobErode.odb,Step-1,Increment      9: Step Time =,    90.00,"TUBE-1",          2627,  -3.50742E-03,  -3.56342E-03,   200.000E-03,NA,NA,"",   5.39526E-03,   433.681E-21,   201.296E-03,   395.261E-06,   1.27841E+03
C:/ALETube/PressureUpdate/LargeStep/DeformErode/JobErode.odb,Step-1,Increment      9: Step Time =,    90.00,"TUBE-1",          2850,  -2.92791E-03,  -4.05307E-03,   212.500E-03,NA,NA,"",   5.39570E-03,            0.,   213.795E-03,   395.701E-06,   1.35696E+03
C:/ALETube/PressureUpdate/LargeStep/DeformErode/JobErode.odb,Step-1,Increment      9: Step Time =,    90.00,"TUBE-1",          2791,  -3.50742E-03,  -3.56342E-03,   212.500E-03,NA,NA,"",   5.39558E-03,  -433.681E-21,   213.795E-03,   395.583E-06,   1.35929E+03
C:/ALETube/PressureUpdate/LargeStep/DeformErode/JobErode.odb,Step-1,Increment      9: Step Time =,    90.00,"TUBE-1",          3014,  -2.92791E-03,  -4.05307E-03,   225.000E-03,NA,NA,"",   5.39602E-03,            0.,   226.293E-03,   396.024E-06,   1.43769E+03
C:/ALETube/PressureUpdate/LargeStep/DeformErode/JobErode.odb,Step-1,Increment      9: Step Time =,    90.00,"TUBE-1",          2955,  -3.50742E-03,  -3.56342E-03,   225.000E-03,NA,NA,"",   5.39591E-03,            0.,   226.293E-03,   395.905E-06,   1.44016E+03
C:/ALETube/PressureUpdate/LargeStep/DeformErode/JobErode.odb,Step-1,Increment      9: Step Time =,    90.00,"TUBE-1",          3178,  -2.92791E-03,  -4.05307E-03,   237.500E-03,NA,NA,"",   5.39635E-03,  -433.681E-21,   238.791E-03,   396.347E-06,   1.51841E+03
C:/ALETube/PressureUpdate/LargeStep/DeformErode/JobErode.odb,Step-1,Increment      9: Step Time =,    90.00,"TUBE-1",          3119,  -3.50742E-03,  -3.56342E-03,   237.500E-03,NA,NA,"",   5.39623E-03,            0.,   238.791E-03,   396.228E-06,   1.52101E+03
C:/ALETube/PressureUpdate/LargeStep/DeformErode/JobErode.odb,Step-1,Increment      9: Step Time =,    90.00,"TUBE-1",          3283,  -3.50742E-03,  -3.56342E-03,      250.E-03,NA,NA,"",   5.39655E-03,            0.,   251.289E-03,   396.550E-06,   1.60184E+03
C:/ALETube/PressureUpdate/LargeStep/DeformErode/JobErode.odb,Step-1,Increment      9: Step Time =,    90.00,"TUBE-1",          3342,  -2.92791E-03,  -4.05307E-03,      250.E-03,NA,NA,"",   5.39667E-03,            0.,   251.289E-03,   396.671E-06,   1.59911E+03
C:/ALETube/PressureUpdate/LargeStep/DeformErode/JobErode.odb,Step-1,Increment      9: Step Time =,    90.00,"TUBE-1",          3506,  -2.92791E-03,  -4.05307E-03,   262.500E-03,NA,NA,"",   5.39699E-03,            0.,   263.787E-03,   396.994E-06,   1.67979E+03
C:/ALETube/PressureUpdate/LargeStep/DeformErode/JobErode.odb,Step-1,Increment      9: Step Time =,    90.00,"TUBE-1",          3447,  -3.50742E-03,  -3.56342E-03,   262.500E-03,NA,NA,"",   5.39687E-03,  -433.681E-21,   263.787E-03,   396.872E-06,   1.68266E+03
C:/ALETube/PressureUpdate/LargeStep/DeformErode/JobErode.odb,Step-1,Increment      9: Step Time =,    90.00,"TUBE-1",          3670,  -2.92791E-03,  -4.05307E-03,   275.000E-03,NA,NA,"",   5.39732E-03,            0.,   276.285E-03,   397.318E-06,   1.76046E+03
C:/ALETube/PressureUpdate/LargeStep/DeformErode/JobErode.odb,Step-1,Increment      9: Step Time =,    90.00,"TUBE-1",          3611,  -3.50742E-03,  -3.56342E-03,   275.000E-03,NA,NA,"",   5.39719E-03,   165.935E-12,   276.285E-03,   397.194E-06,   1.76346E+03
C:/ALETube/PressureUpdate/LargeStep/DeformErode/JobErode.odb,Step-1,Increment      9: Step Time =,    90.00,"TUBE-1",          3834,  -2.92791E-03,  -4.05307E-03,   287.500E-03,NA,NA,"",   5.39764E-03,            0.,   288.782E-03,   397.641E-06,   1.84111E+03
C:/ALETube/PressureUpdate/LargeStep/DeformErode/JobErode.odb,Step-1,Increment      9: Step Time =,    90.00,"TUBE-1",          3775,  -3.50742E-03,  -3.56342E-03,   287.500E-03,NA,NA,"",   5.39752E-03,   163.327E-12,   288.782E-03,   397.516E-06,   1.84425E+03
C:/ALETube/PressureUpdate/LargeStep/DeformErode/JobErode.odb,Step-1,Increment      9: Step Time =,    90.00,"TUBE-1",          3998,  -2.92791E-03,  -4.05307E-03,   300.000E-03,NA,NA,"",   5.39796E-03,  -433.681E-21,   301.280E-03,   397.964E-06,   1.92175E+03
C:/ALETube/PressureUpdate/LargeStep/DeformErode/JobErode.odb,Step-1,Increment      9: Step Time =,    90.00,"TUBE-1",          3939,  -3.50742E-03,  -3.56342E-03,   300.000E-03,NA,NA,"",   5.39784E-03,   433.681E-21,   301.280E-03,   397.838E-06,   1.92502E+03
C:/ALETube/PressureUpdate/LargeStep/DeformErode/JobErode.odb,Step-1,Increment      9: Step Time =,    90.00,"TUBE-1",          4103,  -3.50742E-03,  -3.56342E-03,     312.5E-03,NA,NA,"",   5.39816E-03,   163.327E-12,   313.777E-03,   398.161E-06,   2.00578E+03
C:/ALETube/PressureUpdate/LargeStep/DeformErode/JobErode.odb,Step-1,Increment      9: Step Time =,    90.00,"TUBE-1",          4162,  -2.92791E-03,  -4.05307E-03,     312.5E-03,NA,NA,"",   5.39829E-03,  -433.681E-21,   313.777E-03,   398.287E-06,   2.00237E+03
C:/ALETube/PressureUpdate/LargeStep/DeformErode/JobErode.odb,Step-1,Increment      9: Step Time =,    90.00,"TUBE-1",          4326,  -2.92791E-03,  -4.05307E-03,   325.000E-03,NA,NA,"",   5.39861E-03,  -272.682E-12,   326.275E-03,   398.611E-06,   2.08298E+03
C:/ALETube/PressureUpdate/LargeStep/DeformErode/JobErode.odb,Step-1,Increment      9: Step Time =,    90.00,"TUBE-1",          4267,  -3.50742E-03,  -3.56342E-03,   325.000E-03,NA,NA,"",   5.39848E-03,   165.935E-12,   326.275E-03,   398.483E-06,   2.08652E+03
C:/ALETube/PressureUpdate/LargeStep/DeformErode/JobErode.odb,Step-1,Increment      9: Step Time =,    90.00,"TUBE-1",          4490,  -2.92791E-03,  -4.05307E-03,   337.500E-03,NA,NA,"",   5.39893E-03,            0.,   338.772E-03,   398.934E-06,   2.16357E+03
C:/ALETube/PressureUpdate/LargeStep/DeformErode/JobErode.odb,Step-1,Increment      9: Step Time =,    90.00,"TUBE-1",          4431,  -3.50742E-03,  -3.56342E-03,   337.500E-03,NA,NA,"",   5.39880E-03,            0.,   338.772E-03,   398.805E-06,   2.16725E+03
C:/ALETube/PressureUpdate/LargeStep/DeformErode/JobErode.odb,Step-1,Increment      9: Step Time =,    90.00,"TUBE-1",          4654,  -2.92791E-03,  -4.05307E-03,   350.000E-03,NA,NA,"",   5.39926E-03,            0.,   351.269E-03,   399.257E-06,   2.24415E+03
C:/ALETube/PressureUpdate/LargeStep/DeformErode/JobErode.odb,Step-1,Increment      9: Step Time =,    90.00,"TUBE-1",          4595,  -3.50742E-03,  -3.56342E-03,   350.000E-03,NA,NA,"",   5.39913E-03,            0.,   351.269E-03,   399.127E-06,   2.24796E+03
C:/ALETube/PressureUpdate/LargeStep/DeformErode/JobErode.odb,Step-1,Increment      9: Step Time =,    90.00,"TUBE-1",          4818,  -2.92791E-03,  -4.05307E-03,   362.500E-03,NA,NA,"",   5.39958E-03,            0.,   363.766E-03,   399.580E-06,   2.32471E+03
C:/ALETube/PressureUpdate/LargeStep/DeformErode/JobErode.odb,Step-1,Increment      9: Step Time =,    90.00,"TUBE-1",          4759,  -3.50742E-03,  -3.56342E-03,   362.500E-03,NA,NA,"",   5.39945E-03,  -163.327E-12,   363.766E-03,   399.449E-06,   2.32866E+03
C:/ALETube/PressureUpdate/LargeStep/DeformErode/JobErode.odb,Step-1,Increment      9: Step Time =,    90.00,"TUBE-1",          4923,  -3.50742E-03,  -3.56342E-03,      375.E-03,NA,NA,"",   5.39977E-03,            0.,   376.263E-03,   399.771E-06,   2.40934E+03
C:/ALETube/PressureUpdate/LargeStep/DeformErode/JobErode.odb,Step-1,Increment      9: Step Time =,    90.00,"TUBE-1",          4982,  -2.92791E-03,  -4.05307E-03,      375.E-03,NA,NA,"",   5.39990E-03,  -188.736E-12,   376.263E-03,   399.903E-06,   2.40526E+03
C:/ALETube/PressureUpdate/LargeStep/DeformErode/JobErode.odb,Step-1,Increment      9: Step Time =,    90.00,"TUBE-1",          5146,  -2.92791E-03,  -4.05307E-03,   387.500E-03,NA,NA,"",   5.40023E-03,            0.,   388.760E-03,   400.226E-06,   2.48579E+03
C:/ALETube/PressureUpdate/LargeStep/DeformErode/JobErode.odb,Step-1,Increment      9: Step Time =,    90.00,"TUBE-1",          5087,  -3.50742E-03,  -3.56342E-03,   387.500E-03,NA,NA,"",   5.40009E-03,   163.327E-12,   388.760E-03,   400.093E-06,   2.49000E+03
C:/ALETube/PressureUpdate/LargeStep/DeformErode/JobErode.odb,Step-1,Increment      9: Step Time =,    90.00,"TUBE-1",          5310,  -2.92791E-03,  -4.05307E-03,   400.000E-03,NA,NA,"",   5.40055E-03,   433.681E-21,   401.257E-03,   400.550E-06,   2.56630E+03
C:/ALETube/PressureUpdate/LargeStep/DeformErode/JobErode.odb,Step-1,Increment      9: Step Time =,    90.00,"TUBE-1",          5251,  -3.50742E-03,  -3.56342E-03,   400.000E-03,NA,NA,"",   5.40041E-03,            0.,   401.257E-03,   400.415E-06,   2.57065E+03
C:/ALETube/PressureUpdate/LargeStep/DeformErode/JobErode.odb,Step-1,Increment      9: Step Time =,    90.00,"TUBE-1",          5474,  -2.92791E-03,  -4.05307E-03,   412.500E-03,NA,NA,"",   5.40087E-03,            0.,   413.753E-03,   400.873E-06,   2.64681E+03
C:/ALETube/PressureUpdate/LargeStep/DeformErode/JobErode.odb,Step-1,Increment      9: Step Time =,    90.00,"TUBE-1",          5415,  -3.50742E-03,  -3.56342E-03,   412.500E-03,NA,NA,"",   5.40074E-03,            0.,   413.753E-03,   400.736E-06,   2.65129E+03
C:/ALETube/PressureUpdate/LargeStep/DeformErode/JobErode.odb,Step-1,Increment      9: Step Time =,    90.00,"TUBE-1",          5638,  -2.92791E-03,  -4.05307E-03,   425.000E-03,NA,NA,"",   5.40120E-03,  -433.681E-21,   426.250E-03,   401.196E-06,   2.72729E+03
C:/ALETube/PressureUpdate/LargeStep/DeformErode/JobErode.odb,Step-1,Increment      9: Step Time =,    90.00,"TUBE-1",          5579,  -3.50742E-03,  -3.56342E-03,   425.000E-03,NA,NA,"",   5.40106E-03,            0.,   426.250E-03,   401.058E-06,   2.73190E+03
C:/ALETube/PressureUpdate/LargeStep/DeformErode/JobErode.odb,Step-1,Increment      9: Step Time =,    90.00,"TUBE-1",          5743,  -3.50742E-03,  -3.56342E-03,     437.5E-03,NA,NA,"",   5.40138E-03,            0.,   438.746E-03,   401.380E-06,   2.81251E+03
C:/ALETube/PressureUpdate/LargeStep/DeformErode/JobErode.odb,Step-1,Increment      9: Step Time =,    90.00,"TUBE-1",          5802,  -2.92791E-03,  -4.05307E-03,     437.5E-03,NA,NA,"",   5.40152E-03,            0.,   438.746E-03,   401.519E-06,   2.80776E+03
C:/ALETube/PressureUpdate/LargeStep/DeformErode/JobErode.odb,Step-1,Increment      9: Step Time =,    90.00,"TUBE-1",          5966,  -2.92791E-03,  -4.05307E-03,   450.000E-03,NA,NA,"",   5.40184E-03,            0.,   451.243E-03,   401.842E-06,   2.88821E+03
C:/ALETube/PressureUpdate/LargeStep/DeformErode/JobErode.odb,Step-1,Increment      9: Step Time =,    90.00,"TUBE-1",          5907,  -3.50742E-03,  -3.56342E-03,   450.000E-03,NA,NA,"",   5.40170E-03,  -433.681E-21,   451.243E-03,   401.702E-06,   2.89310E+03
C:/ALETube/PressureUpdate/LargeStep/DeformErode/JobErode.odb,Step-1,Increment      9: Step Time =,    90.00,"TUBE-1",          6130,  -2.92791E-03,  -4.05307E-03,   462.500E-03,NA,NA,"",   5.40216E-03,            0.,   463.739E-03,   402.165E-06,   2.96865E+03
C:/ALETube/PressureUpdate/LargeStep/DeformErode/JobErode.odb,Step-1,Increment      9: Step Time =,    90.00,"TUBE-1",          6071,  -3.50742E-03,  -3.56342E-03,   462.500E-03,NA,NA,"",   5.40202E-03,   433.681E-21,   463.739E-03,   402.024E-06,   2.97367E+03
C:/ALETube/PressureUpdate/LargeStep/DeformErode/JobErode.odb,Step-1,Increment      9: Step Time =,    90.00,"TUBE-1",          6294,  -2.92791E-03,  -4.05307E-03,   475.000E-03,NA,NA,"",   5.40249E-03,            0.,   476.235E-03,   402.487E-06,   3.04908E+03
C:/ALETube/PressureUpdate/LargeStep/DeformErode/JobErode.odb,Step-1,Increment      9: Step Time =,    90.00,"TUBE-1",          6235,  -3.50742E-03,  -3.56342E-03,   475.000E-03,NA,NA,"",   5.40235E-03,   433.681E-21,   476.235E-03,   402.346E-06,   3.05423E+03
C:/ALETube/PressureUpdate/LargeStep/DeformErode/JobErode.odb,Step-1,Increment      9: Step Time =,    90.00,"TUBE-1",          6458,  -2.92791E-03,  -4.05307E-03,   487.500E-03,NA,NA,"",   5.40281E-03,            0.,   488.731E-03,   402.810E-06,   3.12949E+03
C:/ALETube/PressureUpdate/LargeStep/DeformErode/JobErode.odb,Step-1,Increment      9: Step Time =,    90.00,"TUBE-1",          6399,  -3.50742E-03,  -3.56342E-03,   487.500E-03,NA,NA,"",   5.40267E-03,            0.,   488.731E-03,   402.667E-06,   3.13477E+03
C:/ALETube/PressureUpdate/LargeStep/DeformErode/JobErode.odb,Step-1,Increment      9: Step Time =,    90.00,"TUBE-1",          6563,  -3.50742E-03,  -3.56342E-03,      500.E-03,NA,NA,"",   5.40299E-03,  -433.681E-21,   501.227E-03,   402.989E-06,   3.21530E+03
C:/ALETube/PressureUpdate/LargeStep/DeformErode/JobErode.odb,Step-1,Increment      9: Step Time =,    90.00,"TUBE-1",          6622,  -2.92791E-03,  -4.05307E-03,      500.E-03,NA,NA,"",   5.40313E-03,            0.,   501.227E-03,   403.133E-06,   3.20988E+03
C:/ALETube/PressureUpdate/LargeStep/DeformErode/JobErode.odb,Step-1,Increment      9: Step Time =,    90.00,"TUBE-1",          6786,  -2.92791E-03,  -4.05307E-03,   512.500E-03,NA,NA,"",   5.40346E-03,            0.,   513.723E-03,   403.456E-06,   3.29026E+03
C:/ALETube/PressureUpdate/LargeStep/DeformErode/JobErode.odb,Step-1,Increment      9: Step Time =,    90.00,"TUBE-1",          6727,  -3.50742E-03,  -3.56342E-03,   512.500E-03,NA,NA,"",   5.40331E-03,   433.681E-21,   513.723E-03,   403.311E-06,   3.29581E+03
C:/ALETube/PressureUpdate/LargeStep/DeformErode/JobErode.odb,Step-1,Increment      9: Step Time =,    90.00,"TUBE-1",          6950,  -2.92791E-03,  -4.05307E-03,   525.000E-03,NA,NA,"",   5.40378E-03,   433.681E-21,   526.219E-03,   403.779E-06,   3.37062E+03
C:/ALETube/PressureUpdate/LargeStep/DeformErode/JobErode.odb,Step-1,Increment      9: Step Time =,    90.00,"TUBE-1",          6891,  -3.50742E-03,  -3.56342E-03,   525.000E-03,NA,NA,"",   5.40363E-03,  -433.681E-21,   526.219E-03,   403.632E-06,   3.37631E+03
C:/ALETube/PressureUpdate/LargeStep/DeformErode/JobErode.odb,Step-1,Increment      9: Step Time =,    90.00,"TUBE-1",          7114,  -2.92791E-03,  -4.05307E-03,   537.500E-03,NA,NA,"",   5.40410E-03,   433.681E-21,   538.714E-03,   404.102E-06,   3.45097E+03
C:/ALETube/PressureUpdate/LargeStep/DeformErode/JobErode.odb,Step-1,Increment      9: Step Time =,    90.00,"TUBE-1",          7055,  -3.50742E-03,  -3.56342E-03,   537.500E-03,NA,NA,"",   5.40395E-03,            0.,   538.714E-03,   403.954E-06,   3.45679E+03
C:/ALETube/PressureUpdate/LargeStep/DeformErode/JobErode.odb,Step-1,Increment      9: Step Time =,    90.00,"TUBE-1",          7278,  -2.92791E-03,  -4.05307E-03,   550.000E-03,NA,NA,"",   5.40442E-03,   188.736E-12,   551.210E-03,   404.425E-06,   3.53130E+03
C:/ALETube/PressureUpdate/LargeStep/DeformErode/JobErode.odb,Step-1,Increment      9: Step Time =,    90.00,"TUBE-1",          7219,  -3.50742E-03,  -3.56342E-03,   550.000E-03,NA,NA,"",   5.40428E-03,  -433.681E-21,   551.210E-03,   404.276E-06,   3.53725E+03
C:/ALETube/PressureUpdate/LargeStep/DeformErode/JobErode.odb,Step-1,Increment      9: Step Time =,    90.00,"TUBE-1",          7383,  -3.50742E-03,  -3.56342E-03,     562.5E-03,NA,NA,"",   5.40460E-03,   433.681E-21,   563.705E-03,   404.597E-06,   3.61770E+03
C:/ALETube/PressureUpdate/LargeStep/DeformErode/JobErode.odb,Step-1,Increment      9: Step Time =,    90.00,"TUBE-1",          7442,  -2.92791E-03,  -4.05307E-03,     562.5E-03,NA,NA,"",   5.40475E-03,            0.,   563.705E-03,   404.747E-06,   3.61162E+03
C:/ALETube/PressureUpdate/LargeStep/DeformErode/JobErode.odb,Step-1,Increment      9: Step Time =,    90.00,"TUBE-1",          7606,  -2.92791E-03,  -4.05307E-03,   575.000E-03,NA,NA,"",   5.40507E-03,   433.681E-21,   576.201E-03,   405.070E-06,   3.69192E+03
C:/ALETube/PressureUpdate/LargeStep/DeformErode/JobErode.odb,Step-1,Increment      9: Step Time =,    90.00,"TUBE-1",          7547,  -3.50742E-03,  -3.56342E-03,   575.000E-03,NA,NA,"",   5.40492E-03,  -433.681E-21,   576.201E-03,   404.919E-06,   3.69814E+03
C:/ALETube/PressureUpdate/LargeStep/DeformErode/JobErode.odb,Step-1,Increment      9: Step Time =,    90.00,"TUBE-1",          7770,  -2.92791E-03,  -4.05307E-03,   587.500E-03,NA,NA,"",   5.40539E-03,  -272.682E-12,   588.696E-03,   405.393E-06,   3.77221E+03
C:/ALETube/PressureUpdate/LargeStep/DeformErode/JobErode.odb,Step-1,Increment      9: Step Time =,    90.00,"TUBE-1",          7711,  -3.50742E-03,  -3.56342E-03,   587.500E-03,NA,NA,"",   5.40524E-03,  -433.681E-21,   588.696E-03,   405.240E-06,   3.77856E+03
C:/ALETube/PressureUpdate/LargeStep/DeformErode/JobErode.odb,Step-1,Increment      9: Step Time =,    90.00,"TUBE-1",          7934,  -2.92791E-03,  -4.05307E-03,   600.000E-03,NA,NA,"",   5.40572E-03,            0.,   601.191E-03,   405.715E-06,   3.85248E+03
C:/ALETube/PressureUpdate/LargeStep/DeformErode/JobErode.odb,Step-1,Increment      9: Step Time =,    90.00,"TUBE-1",          7875,  -3.50742E-03,  -3.56342E-03,   600.000E-03,NA,NA,"",   5.40556E-03,   433.681E-21,   601.191E-03,   405.562E-06,   3.85896E+03
C:/ALETube/PressureUpdate/LargeStep/DeformErode/JobErode.odb,Step-1,Increment      9: Step Time =,    90.00,"TUBE-1",          8098,  -2.92791E-03,  -4.05307E-03,   612.500E-03,NA,NA,"",   5.40604E-03,            0.,   613.686E-03,   406.038E-06,   3.93274E+03
C:/ALETube/PressureUpdate/LargeStep/DeformErode/JobErode.odb,Step-1,Increment      9: Step Time =,    90.00,"TUBE-1",          8039,  -3.50742E-03,  -3.56342E-03,   612.500E-03,NA,NA,"",   5.40588E-03,   433.681E-21,   613.686E-03,   405.883E-06,   3.93935E+03
C:/ALETube/PressureUpdate/LargeStep/DeformErode/JobErode.odb,Step-1,Increment      9: Step Time =,    90.00,"TUBE-1",          8203,  -3.50742E-03,  -3.56342E-03,      625.E-03,NA,NA,"",   5.40620E-03,   433.681E-21,   626.181E-03,   406.205E-06,   4.01973E+03
C:/ALETube/PressureUpdate/LargeStep/DeformErode/JobErode.odb,Step-1,Increment      9: Step Time =,    90.00,"TUBE-1",          8262,  -2.92791E-03,  -4.05307E-03,      625.E-03,NA,NA,"",   5.40636E-03,   433.681E-21,   626.181E-03,   406.361E-06,   4.01298E+03
C:/ALETube/PressureUpdate/LargeStep/DeformErode/JobErode.odb,Step-1,Increment      9: Step Time =,    90.00,"TUBE-1",          8426,  -2.92791E-03,  -4.05307E-03,   637.500E-03,NA,NA,"",   5.40668E-03,            0.,   638.676E-03,   406.683E-06,   4.09321E+03
C:/ALETube/PressureUpdate/LargeStep/DeformErode/JobErode.odb,Step-1,Increment      9: Step Time =,    90.00,"TUBE-1",          8367,  -3.50742E-03,  -3.56342E-03,   637.500E-03,NA,NA,"",   5.40653E-03,            0.,   638.676E-03,   406.526E-06,   4.10009E+03
C:/ALETube/PressureUpdate/LargeStep/DeformErode/JobErode.odb,Step-1,Increment      9: Step Time =,    90.00,"TUBE-1",          8590,  -2.92791E-03,  -4.05307E-03,   650.000E-03,NA,NA,"",   5.40701E-03,            0.,   651.170E-03,   407.006E-06,   4.17342E+03
C:/ALETube/PressureUpdate/LargeStep/DeformErode/JobErode.odb,Step-1,Increment      9: Step Time =,    90.00,"TUBE-1",          8531,  -3.50742E-03,  -3.56342E-03,   650.000E-03,NA,NA,"",   5.40685E-03,            0.,   651.170E-03,   406.848E-06,   4.18043E+03
C:/ALETube/PressureUpdate/LargeStep/DeformErode/JobErode.odb,Step-1,Increment      9: Step Time =,    90.00,"TUBE-1",          8754,  -2.92791E-03,  -4.05307E-03,   662.500E-03,NA,NA,"",   5.40733E-03,            0.,   663.665E-03,   407.328E-06,   4.25362E+03
C:/ALETube/PressureUpdate/LargeStep/DeformErode/JobErode.odb,Step-1,Increment      9: Step Time =,    90.00,"TUBE-1",          8695,  -3.50742E-03,  -3.56342E-03,   662.500E-03,NA,NA,"",   5.40717E-03,            0.,   663.665E-03,   407.169E-06,   4.26076E+03
C:/ALETube/PressureUpdate/LargeStep/DeformErode/JobErode.odb,Step-1,Increment      9: Step Time =,    90.00,"TUBE-1",          8918,  -2.92791E-03,  -4.05307E-03,   675.000E-03,NA,NA,"",   5.40765E-03,            0.,   676.159E-03,   407.651E-06,   4.33380E+03
C:/ALETube/PressureUpdate/LargeStep/DeformErode/JobErode.odb,Step-1,Increment      9: Step Time =,    90.00,"TUBE-1",          8859,  -3.50742E-03,  -3.56342E-03,   675.000E-03,NA,NA,"",   5.40749E-03,            0.,   676.159E-03,   407.491E-06,   4.34107E+03
C:/ALETube/PressureUpdate/LargeStep/DeformErode/JobErode.odb,Step-1,Increment      9: Step Time =,    90.00,"TUBE-1",          9023,  -3.50742E-03,  -3.56342E-03,     687.5E-03,NA,NA,"",   5.40781E-03,            0.,   688.654E-03,   407.812E-06,   4.42137E+03
C:/ALETube/PressureUpdate/LargeStep/DeformErode/JobErode.odb,Step-1,Increment      9: Step Time =,    90.00,"TUBE-1",          9082,  -2.92791E-03,  -4.05307E-03,     687.5E-03,NA,NA,"",   5.40797E-03,            0.,   688.654E-03,   407.973E-06,   4.41396E+03
C:/ALETube/PressureUpdate/LargeStep/DeformErode/JobErode.odb,Step-1,Increment      9: Step Time =,    90.00,"TUBE-1",          9246,  -2.92791E-03,  -4.05307E-03,   700.000E-03,NA,NA,"",   5.40830E-03,  -433.681E-21,   701.148E-03,   408.296E-06,   4.49411E+03
C:/ALETube/PressureUpdate/LargeStep/DeformErode/JobErode.odb,Step-1,Increment      9: Step Time =,    90.00,"TUBE-1",          9187,  -3.50742E-03,  -3.56342E-03,   700.000E-03,NA,NA,"",   5.40813E-03,            0.,   701.148E-03,   408.133E-06,   4.50165E+03
C:/ALETube/PressureUpdate/LargeStep/DeformErode/JobErode.odb,Step-1,Increment      9: Step Time =,    90.00,"TUBE-1",          9410,  -2.92791E-03,  -4.05307E-03,   712.500E-03,NA,NA,"",   5.40862E-03,  -433.681E-21,   713.642E-03,   408.618E-06,   4.57425E+03
C:/ALETube/PressureUpdate/LargeStep/DeformErode/JobErode.odb,Step-1,Increment      9: Step Time =,    90.00,"TUBE-1",          9351,  -3.50742E-03,  -3.56342E-03,   712.500E-03,NA,NA,"",   5.40845E-03,            0.,   713.642E-03,   408.454E-06,   4.58192E+03
C:/ALETube/PressureUpdate/LargeStep/DeformErode/JobErode.odb,Step-1,Increment      9: Step Time =,    90.00,"TUBE-1",          9574,  -2.92791E-03,  -4.05307E-03,   725.000E-03,NA,NA,"",   5.40894E-03,            0.,   726.136E-03,   408.941E-06,   4.65437E+03
C:/ALETube/PressureUpdate/LargeStep/DeformErode/JobErode.odb,Step-1,Increment      9: Step Time =,    90.00,"TUBE-1",          9515,  -3.50742E-03,  -3.56342E-03,   725.000E-03,NA,NA,"",   5.40878E-03,            0.,   726.136E-03,   408.776E-06,   4.66217E+03
C:/ALETube/PressureUpdate/LargeStep/DeformErode/JobErode.odb,Step-1,Increment      9: Step Time =,    90.00,"TUBE-1",          9738,  -2.92791E-03,  -4.05307E-03,   737.500E-03,NA,NA,"",   5.40926E-03,  -433.681E-21,   738.630E-03,   409.263E-06,   4.73447E+03
C:/ALETube/PressureUpdate/LargeStep/DeformErode/JobErode.odb,Step-1,Increment      9: Step Time =,    90.00,"TUBE-1",          9679,  -3.50742E-03,  -3.56342E-03,   737.500E-03,NA,NA,"",   5.40910E-03,            0.,   738.630E-03,   409.097E-06,   4.74241E+03
C:/ALETube/PressureUpdate/LargeStep/DeformErode/JobErode.odb,Step-1,Increment      9: Step Time =,    90.00,"TUBE-1",          9843,  -3.50742E-03,  -3.56342E-03,      750.E-03,NA,NA,"",   5.40942E-03,            0.,   751.124E-03,   409.418E-06,   4.82263E+03
C:/ALETube/PressureUpdate/LargeStep/DeformErode/JobErode.odb,Step-1,Increment      9: Step Time =,    90.00,"TUBE-1",          9902,  -2.92791E-03,  -4.05307E-03,      750.E-03,NA,NA,"",   5.40959E-03,            0.,   751.124E-03,   409.585E-06,   4.81457E+03
C:/ALETube/PressureUpdate/LargeStep/DeformErode/JobErode.odb,Step-1,Increment      9: Step Time =,    90.00,"TUBE-1",         10066,  -2.92791E-03,  -4.05307E-03,   762.500E-03,NA,NA,"",   5.40991E-03,            0.,   763.618E-03,   409.908E-06,   4.89464E+03
C:/ALETube/PressureUpdate/LargeStep/DeformErode/JobErode.odb,Step-1,Increment      9: Step Time =,    90.00,"TUBE-1",         10007,  -3.50742E-03,  -3.56342E-03,   762.500E-03,NA,NA,"",   5.40974E-03,            0.,   763.618E-03,   409.739E-06,   4.90284E+03
C:/ALETube/PressureUpdate/LargeStep/DeformErode/JobErode.odb,Step-1,Increment      9: Step Time =,    90.00,"TUBE-1",         10230,  -2.92791E-03,  -4.05307E-03,   775.000E-03,NA,NA,"",   5.41023E-03,            0.,   776.112E-03,   410.230E-06,   4.97470E+03
C:/ALETube/PressureUpdate/LargeStep/DeformErode/JobErode.odb,Step-1,Increment      9: Step Time =,    90.00,"TUBE-1",         10171,  -3.50742E-03,  -3.56342E-03,   775.000E-03,NA,NA,"",   5.41006E-03,            0.,   776.112E-03,   410.061E-06,   4.98303E+03
C:/ALETube/PressureUpdate/LargeStep/DeformErode/JobErode.odb,Step-1,Increment      9: Step Time =,    90.00,"TUBE-1",         10394,  -2.92791E-03,  -4.05307E-03,   787.500E-03,NA,NA,"",   5.41055E-03,  -433.681E-21,   788.605E-03,   410.552E-06,   5.05475E+03
C:/ALETube/PressureUpdate/LargeStep/DeformErode/JobErode.odb,Step-1,Increment      9: Step Time =,    90.00,"TUBE-1",         10335,  -3.50742E-03,  -3.56342E-03,   787.500E-03,NA,NA,"",   5.41038E-03,   433.681E-21,   788.605E-03,   410.382E-06,   5.06321E+03
C:/ALETube/PressureUpdate/LargeStep/DeformErode/JobErode.odb,Step-1,Increment      9: Step Time =,    90.00,"TUBE-1",         10558,  -2.92791E-03,  -4.05307E-03,   800.000E-03,NA,NA,"",   5.41087E-03,            0.,   801.099E-03,   410.875E-06,   5.13478E+03
C:/ALETube/PressureUpdate/LargeStep/DeformErode/JobErode.odb,Step-1,Increment      9: Step Time =,    90.00,"TUBE-1",         10499,  -3.50742E-03,  -3.56342E-03,   800.000E-03,NA,NA,"",   5.41070E-03,            0.,   801.099E-03,   410.703E-06,   5.14337E+03
C:/ALETube/PressureUpdate/LargeStep/DeformErode/JobErode.odb,Step-1,Increment      9: Step Time =,    90.00,"TUBE-1",         10663,  -3.50742E-03,  -3.56342E-03,     812.5E-03,NA,NA,"",   5.41102E-03,  -433.681E-21,   813.592E-03,   411.024E-06,   5.22352E+03
C:/ALETube/PressureUpdate/LargeStep/DeformErode/JobErode.odb,Step-1,Increment      9: Step Time =,    90.00,"TUBE-1",         10722,  -2.92791E-03,  -4.05307E-03,     812.5E-03,NA,NA,"",   5.41120E-03,            0.,   813.592E-03,   411.197E-06,   5.21479E+03
C:/ALETube/PressureUpdate/LargeStep/DeformErode/JobErode.odb,Step-1,Increment      9: Step Time =,    90.00,"TUBE-1",         10886,  -2.92791E-03,  -4.05307E-03,   825.000E-03,NA,NA,"",   5.41152E-03,  -188.736E-12,   826.085E-03,   411.519E-06,   5.29479E+03
C:/ALETube/PressureUpdate/LargeStep/DeformErode/JobErode.odb,Step-1,Increment      9: Step Time =,    90.00,"TUBE-1",         10827,  -3.50742E-03,  -3.56342E-03,   825.000E-03,NA,NA,"",   5.41135E-03,  -163.327E-12,   826.085E-03,   411.345E-06,   5.30365E+03
C:/ALETube/PressureUpdate/LargeStep/DeformErode/JobErode.odb,Step-1,Increment      9: Step Time =,    90.00,"TUBE-1",         11050,  -2.92791E-03,  -4.05307E-03,   837.500E-03,NA,NA,"",   5.41184E-03,  -433.681E-21,   838.578E-03,   411.841E-06,   5.37478E+03
C:/ALETube/PressureUpdate/LargeStep/DeformErode/JobErode.odb,Step-1,Increment      9: Step Time =,    90.00,"TUBE-1",         10991,  -3.50742E-03,  -3.56342E-03,   837.500E-03,NA,NA,"",   5.41167E-03,  -433.681E-21,   838.578E-03,   411.666E-06,   5.38377E+03
C:/ALETube/PressureUpdate/LargeStep/DeformErode/JobErode.odb,Step-1,Increment      9: Step Time =,    90.00,"TUBE-1",         11214,  -2.92791E-03,  -4.05307E-03,   850.000E-03,NA,NA,"",   5.41216E-03,   433.681E-21,   851.072E-03,   412.163E-06,   5.45475E+03
C:/ALETube/PressureUpdate/LargeStep/DeformErode/JobErode.odb,Step-1,Increment      9: Step Time =,    90.00,"TUBE-1",         11155,  -3.50742E-03,  -3.56342E-03,   850.000E-03,NA,NA,"",   5.41199E-03,            0.,   851.072E-03,   411.987E-06,   5.46387E+03
C:/ALETube/PressureUpdate/LargeStep/DeformErode/JobErode.odb,Step-1,Increment      9: Step Time =,    90.00,"TUBE-1",         11378,  -2.92791E-03,  -4.05307E-03,   862.500E-03,NA,NA,"",   5.41249E-03,   272.682E-12,   863.564E-03,   412.486E-06,   5.53470E+03
C:/ALETube/PressureUpdate/LargeStep/DeformErode/JobErode.odb,Step-1,Increment      9: Step Time =,    90.00,"TUBE-1",         11319,  -3.50742E-03,  -3.56342E-03,   862.500E-03,NA,NA,"",   5.41231E-03,  -433.681E-21,   863.564E-03,   412.308E-06,   5.54395E+03
C:/ALETube/PressureUpdate/LargeStep/DeformErode/JobErode.odb,Step-1,Increment      9: Step Time =,    90.00,"TUBE-1",         11483,  -3.50742E-03,  -3.56342E-03,      875.E-03,NA,NA,"",   5.41263E-03,   433.681E-21,   876.057E-03,   412.629E-06,   5.62402E+03
C:/ALETube/PressureUpdate/LargeStep/DeformErode/JobErode.odb,Step-1,Increment      9: Step Time =,    90.00,"TUBE-1",         11542,  -2.92791E-03,  -4.05307E-03,      875.E-03,NA,NA,"",   5.41281E-03,            0.,   876.057E-03,   412.808E-06,   5.61464E+03
C:/ALETube/PressureUpdate/LargeStep/DeformErode/JobErode.odb,Step-1,Increment      9: Step Time =,    90.00,"TUBE-1",         11706,  -2.92791E-03,  -4.05307E-03,   887.500E-03,NA,NA,"",   5.41313E-03,            0.,   888.550E-03,   413.130E-06,   5.69456E+03
C:/ALETube/PressureUpdate/LargeStep/DeformErode/JobErode.odb,Step-1,Increment      9: Step Time =,    90.00,"TUBE-1",         11647,  -3.50742E-03,  -3.56342E-03,   887.500E-03,NA,NA,"",   5.41295E-03,            0.,   888.550E-03,   412.950E-06,   5.70408E+03
C:/ALETube/PressureUpdate/LargeStep/DeformErode/JobErode.odb,Step-1,Increment      9: Step Time =,    90.00,"TUBE-1",         11870,  -2.92791E-03,  -4.05307E-03,   900.000E-03,NA,NA,"",   5.41345E-03,            0.,   901.043E-03,   413.452E-06,   5.77447E+03
C:/ALETube/PressureUpdate/LargeStep/DeformErode/JobErode.odb,Step-1,Increment      9: Step Time =,    90.00,"TUBE-1",         11811,  -3.50742E-03,  -3.56342E-03,   900.000E-03,NA,NA,"",   5.41327E-03,   163.327E-12,   901.043E-03,   413.271E-06,   5.78412E+03
C:/ALETube/PressureUpdate/LargeStep/DeformErode/JobErode.odb,Step-1,Increment      9: Step Time =,    90.00,"TUBE-1",         12034,  -2.92791E-03,  -4.05307E-03,   912.500E-03,NA,NA,"",   5.41377E-03,  -433.681E-21,   913.535E-03,   413.774E-06,   5.85437E+03
C:/ALETube/PressureUpdate/LargeStep/DeformErode/JobErode.odb,Step-1,Increment      9: Step Time =,    90.00,"TUBE-1",         11975,  -3.50742E-03,  -3.56342E-03,   912.500E-03,NA,NA,"",   5.41359E-03,            0.,   913.535E-03,   413.592E-06,   5.86415E+03
C:/ALETube/PressureUpdate/LargeStep/DeformErode/JobErode.odb,Step-1,Increment      9: Step Time =,    90.00,"TUBE-1",         12198,  -2.92791E-03,  -4.05307E-03,   925.000E-03,NA,NA,"",   5.41410E-03,   433.681E-21,   926.028E-03,   414.096E-06,   5.93425E+03
C:/ALETube/PressureUpdate/LargeStep/DeformErode/JobErode.odb,Step-1,Increment      9: Step Time =,    90.00,"TUBE-1",         12139,  -3.50742E-03,  -3.56342E-03,   925.000E-03,NA,NA,"",   5.41391E-03,  -433.681E-21,   926.028E-03,   413.913E-06,   5.94416E+03
C:/ALETube/PressureUpdate/LargeStep/DeformErode/JobErode.odb,Step-1,Increment      9: Step Time =,    90.00,"TUBE-1",         12303,  -3.50742E-03,  -3.56342E-03,     937.5E-03,NA,NA,"",   5.41423E-03,            0.,   938.520E-03,   414.233E-06,   6.02415E+03
C:/ALETube/PressureUpdate/LargeStep/DeformErode/JobErode.odb,Step-1,Increment      9: Step Time =,    90.00,"TUBE-1",         12362,  -2.92791E-03,  -4.05307E-03,     937.5E-03,NA,NA,"",   5.41442E-03,            0.,   938.520E-03,   414.418E-06,   6.01411E+03
C:/ALETube/PressureUpdate/LargeStep/DeformErode/JobErode.odb,Step-1,Increment      9: Step Time =,    90.00,"TUBE-1",         12526,  -2.92791E-03,  -4.05307E-03,   950.000E-03,NA,NA,"",   5.41474E-03,            0.,   951.012E-03,   414.740E-06,   6.09396E+03
C:/ALETube/PressureUpdate/LargeStep/DeformErode/JobErode.odb,Step-1,Increment      9: Step Time =,    90.00,"TUBE-1",         12467,  -3.50742E-03,  -3.56342E-03,   950.000E-03,NA,NA,"",   5.41455E-03,   433.681E-21,   951.012E-03,   414.554E-06,   6.10413E+03
C:/ALETube/PressureUpdate/LargeStep/DeformErode/JobErode.odb,Step-1,Increment      9: Step Time =,    90.00,"TUBE-1",         12690,  -2.92791E-03,  -4.05307E-03,   962.500E-03,NA,NA,"",   5.41506E-03,   433.681E-21,   963.504E-03,   415.062E-06,   6.17380E+03
C:/ALETube/PressureUpdate/LargeStep/DeformErode/JobErode.odb,Step-1,Increment      9: Step Time =,    90.00,"TUBE-1",         12631,  -3.50742E-03,  -3.56342E-03,   962.500E-03,NA,NA,"",   5.41488E-03,            0.,   963.504E-03,   414.875E-06,   6.18410E+03
C:/ALETube/PressureUpdate/LargeStep/DeformErode/JobErode.odb,Step-1,Increment      9: Step Time =,    90.00,"TUBE-1",         12854,  -2.92791E-03,  -4.05307E-03,   975.000E-03,NA,NA,"",   5.41538E-03,   433.681E-21,   975.997E-03,   415.384E-06,   6.25362E+03
C:/ALETube/PressureUpdate/LargeStep/DeformErode/JobErode.odb,Step-1,Increment      9: Step Time =,    90.00,"TUBE-1",         12795,  -3.50742E-03,  -3.56342E-03,   975.000E-03,NA,NA,"",   5.41520E-03,            0.,   975.997E-03,   415.196E-06,   6.26405E+03
C:/ALETube/PressureUpdate/LargeStep/DeformErode/JobErode.odb,Step-1,Increment      9: Step Time =,    90.00,"TUBE-1",         13018,  -2.92791E-03,  -4.05307E-03,   987.500E-03,NA,NA,"",   5.41571E-03,   433.681E-21,   988.488E-03,   415.705E-06,   6.33342E+03
C:/ALETube/PressureUpdate/LargeStep/DeformErode/JobErode.odb,Step-1,Increment      9: Step Time =,    90.00,"TUBE-1",         12959,  -3.50742E-03,  -3.56342E-03,   987.500E-03,NA,NA,"",   5.41552E-03,            0.,   988.488E-03,   415.517E-06,   6.34398E+03
C:/ALETube/PressureUpdate/LargeStep/DeformErode/JobErode.odb,Step-1,Increment      9: Step Time =,    90.00,"TUBE-1",         13123,  -3.50742E-03,  -3.56342E-03,            1.,NA,NA,"",   5.41584E-03,   433.681E-21,       1.00098,   415.837E-06,   6.42390E+03
C:/ALETube/PressureUpdate/LargeStep/DeformErode/JobErode.odb,Step-1,Increment      9: Step Time =,    90.00,"TUBE-1",         13182,  -2.92791E-03,  -4.05307E-03,            1.,NA,NA,"",   5.41603E-03,            0.,       1.00098,   416.027E-06,   6.41321E+03
C:/ALETube/PressureUpdate/LargeStep/DeformErode/JobErode.odb,Step-1,Increment      9: Step Time =,    90.00,"TUBE-1",         13346,  -2.92791E-03,  -4.05307E-03,       1.01250,NA,NA,"",   5.41635E-03,            0.,       1.01347,   416.349E-06,   6.49299E+03
C:/ALETube/PressureUpdate/LargeStep/DeformErode/JobErode.odb,Step-1,Increment      9: Step Time =,    90.00,"TUBE-1",         13287,  -3.50742E-03,  -3.56342E-03,       1.01250,NA,NA,"",   5.41616E-03,            0.,       1.01347,   416.158E-06,   6.50381E+03
C:/ALETube/PressureUpdate/LargeStep/DeformErode/JobErode.odb,Step-1,Increment      9: Step Time =,    90.00,"TUBE-1",         13510,  -2.92791E-03,  -4.05307E-03,       1.02500,NA,NA,"",   5.41667E-03,            0.,       1.02596,   416.671E-06,   6.57275E+03
C:/ALETube/PressureUpdate/LargeStep/DeformErode/JobErode.odb,Step-1,Increment      9: Step Time =,    90.00,"TUBE-1",         13451,  -3.50742E-03,  -3.56342E-03,       1.02500,NA,NA,"",   5.41648E-03,  -433.681E-21,       1.02596,   416.479E-06,   6.58370E+03
C:/ALETube/PressureUpdate/LargeStep/DeformErode/JobErode.odb,Step-1,Increment      9: Step Time =,    90.00,"TUBE-1",         13615,  -3.50742E-03,  -3.56342E-03,       1.03750,NA,NA,"",   5.41680E-03,            0.,       1.03846,   416.799E-06,   6.66357E+03
C:/ALETube/PressureUpdate/LargeStep/DeformErode/JobErode.odb,Step-1,Increment      9: Step Time =,    90.00,"TUBE-1",         13674,  -2.92791E-03,  -4.05307E-03,       1.03750,NA,NA,"",   5.41699E-03,            0.,       1.03846,   416.993E-06,   6.65249E+03
C:/ALETube/PressureUpdate/LargeStep/DeformErode/JobErode.odb,Step-1,Increment      9: Step Time =,    90.00,"TUBE-1",         13838,  -2.92791E-03,  -4.05307E-03,       1.05000,NA,NA,"",   5.41731E-03,   433.681E-21,       1.05095,   417.314E-06,   6.73222E+03
C:/ALETube/PressureUpdate/LargeStep/DeformErode/JobErode.odb,Step-1,Increment      9: Step Time =,    90.00,"TUBE-1",         13779,  -3.50742E-03,  -3.56342E-03,       1.05000,NA,NA,"",   5.41712E-03,   433.681E-21,       1.05095,   417.120E-06,   6.74343E+03
C:/ALETube/PressureUpdate/LargeStep/DeformErode/JobErode.odb,Step-1,Increment      9: Step Time =,    90.00,"TUBE-1",         14002,  -2.92791E-03,  -4.05307E-03,        1.0625,NA,NA,"",   5.41764E-03,   188.736E-12,       1.06344,   417.636E-06,   6.81194E+03
C:/ALETube/PressureUpdate/LargeStep/DeformErode/JobErode.odb,Step-1,Increment      9: Step Time =,    90.00,"TUBE-1",         13943,  -3.50742E-03,  -3.56342E-03,        1.0625,NA,NA,"",   5.41744E-03,   433.681E-21,       1.06344,   417.441E-06,   6.82328E+03
C:/ALETube/PressureUpdate/LargeStep/DeformErode/JobErode.odb,Step-1,Increment      9: Step Time =,    90.00,"TUBE-1",         14107,  -3.50742E-03,  -3.56342E-03,       1.07500,NA,NA,"",   5.41776E-03,            0.,       1.07593,   417.761E-06,   6.90310E+03
C:/ALETube/PressureUpdate/LargeStep/DeformErode/JobErode.odb,Step-1,Increment      9: Step Time =,    90.00,"TUBE-1",         14166,  -2.92791E-03,  -4.05307E-03,       1.07500,NA,NA,"",   5.41796E-03,  -188.736E-12,       1.07593,   417.958E-06,   6.89163E+03
C:/ALETube/PressureUpdate/LargeStep/DeformErode/JobErode.odb,Step-1,Increment      9: Step Time =,    90.00,"TUBE-1",         14330,  -2.92791E-03,  -4.05307E-03,       1.08750,NA,NA,"",   5.41828E-03,  -433.681E-21,       1.08842,   418.280E-06,   6.97132E+03
C:/ALETube/PressureUpdate/LargeStep/DeformErode/JobErode.odb,Step-1,Increment      9: Step Time =,    90.00,"TUBE-1",         14271,  -3.50742E-03,  -3.56342E-03,       1.08750,NA,NA,"",   5.41808E-03,   433.681E-21,       1.08842,   418.082E-06,   6.98292E+03
C:/ALETube/PressureUpdate/LargeStep/DeformErode/JobErode.odb,Step-1,Increment      9: Step Time =,    90.00,"TUBE-1",         14494,  -2.92791E-03,  -4.05307E-03,       1.10000,NA,NA,"",   5.41860E-03,  -188.736E-12,       1.10091,   418.601E-06,   7.05099E+03
C:/ALETube/PressureUpdate/LargeStep/DeformErode/JobErode.odb,Step-1,Increment      9: Step Time =,    90.00,"TUBE-1",         14435,  -3.50742E-03,  -3.56342E-03,       1.10000,NA,NA,"",   5.41840E-03,  -433.681E-21,       1.10091,   418.402E-06,   7.06272E+03
C:/ALETube/PressureUpdate/LargeStep/DeformErode/JobErode.odb,Step-1,Increment      9: Step Time =,    90.00,"TUBE-1",         14658,  -2.92791E-03,  -4.05307E-03,       1.11250,NA,NA,"",   5.41892E-03,   188.736E-12,       1.11340,   418.923E-06,   7.13064E+03
C:/ALETube/PressureUpdate/LargeStep/DeformErode/JobErode.odb,Step-1,Increment      9: Step Time =,    90.00,"TUBE-1",         14599,  -3.50742E-03,  -3.56342E-03,       1.11250,NA,NA,"",   5.41872E-03,   433.681E-21,       1.11340,   418.723E-06,   7.14250E+03
C:/ALETube/PressureUpdate/LargeStep/DeformErode/JobErode.odb,Step-1,Increment      9: Step Time =,    90.00,"TUBE-1",         14822,  -2.92791E-03,  -4.05307E-03,         1.125,NA,NA,"",   5.41924E-03,  -433.681E-21,       1.12589,   419.244E-06,   7.21029E+03
C:/ALETube/PressureUpdate/LargeStep/DeformErode/JobErode.odb,Step-1,Increment      9: Step Time =,    90.00,"TUBE-1",         14763,  -3.50742E-03,  -3.56342E-03,         1.125,NA,NA,"",   5.41904E-03,   433.681E-21,       1.12589,   419.043E-06,   7.22227E+03
C:/ALETube/PressureUpdate/LargeStep/DeformErode/JobErode.odb,Step-1,Increment      9: Step Time =,    90.00,"TUBE-1",         14927,  -3.50742E-03,  -3.56342E-03,       1.13750,NA,NA,"",   5.41936E-03,   433.681E-21,       1.13838,   419.364E-06,   7.30203E+03
C:/ALETube/PressureUpdate/LargeStep/DeformErode/JobErode.odb,Step-1,Increment      9: Step Time =,    90.00,"TUBE-1",         14986,  -2.92791E-03,  -4.05307E-03,       1.13750,NA,NA,"",   5.41957E-03,            0.,       1.13838,   419.566E-06,   7.28991E+03
C:/ALETube/PressureUpdate/LargeStep/DeformErode/JobErode.odb,Step-1,Increment      9: Step Time =,    90.00,"TUBE-1",         15150,  -2.92791E-03,  -4.05307E-03,       1.15000,NA,NA,"",   5.41989E-03,  -433.681E-21,       1.15087,   419.888E-06,   7.36952E+03
C:/ALETube/PressureUpdate/LargeStep/DeformErode/JobErode.odb,Step-1,Increment      9: Step Time =,    90.00,"TUBE-1",         15091,  -3.50742E-03,  -3.56342E-03,       1.15000,NA,NA,"",   5.41968E-03,   433.681E-21,       1.15087,   419.684E-06,   7.38177E+03
C:/ALETube/PressureUpdate/LargeStep/DeformErode/JobErode.odb,Step-1,Increment      9: Step Time =,    90.00,"TUBE-1",         15314,  -2.92791E-03,  -4.05307E-03,       1.16250,NA,NA,"",   5.42021E-03,            0.,       1.16337,   420.209E-06,   7.44912E+03
C:/ALETube/PressureUpdate/LargeStep/DeformErode/JobErode.odb,Step-1,Increment      9: Step Time =,    90.00,"TUBE-1",         15255,  -3.50742E-03,  -3.56342E-03,       1.16250,NA,NA,"",   5.42000E-03,   165.935E-12,       1.16337,   420.004E-06,   7.46149E+03
C:/ALETube/PressureUpdate/LargeStep/DeformErode/JobErode.odb,Step-1,Increment      9: Step Time =,    90.00,"TUBE-1",         15478,  -2.92791E-03,  -4.05307E-03,       1.17500,NA,NA,"",   5.42053E-03,            0.,       1.17586,   420.531E-06,   7.52870E+03
C:/ALETube/PressureUpdate/LargeStep/DeformErode/JobErode.odb,Step-1,Increment      9: Step Time =,    90.00,"TUBE-1",         15419,  -3.50742E-03,  -3.56342E-03,       1.17500,NA,NA,"",   5.42032E-03,            0.,       1.17586,   420.325E-06,   7.54120E+03
C:/ALETube/PressureUpdate/LargeStep/DeformErode/JobErode.odb,Step-1,Increment      9: Step Time =,    90.00,"TUBE-1",         15642,  -2.92791E-03,  -4.05307E-03,        1.1875,NA,NA,"",   5.42085E-03,  -433.681E-21,       1.18835,   420.852E-06,   7.60826E+03
C:/ALETube/PressureUpdate/LargeStep/DeformErode/JobErode.odb,Step-1,Increment      9: Step Time =,    90.00,"TUBE-1",         15583,  -3.50742E-03,  -3.56342E-03,        1.1875,NA,NA,"",   5.42065E-03,            0.,       1.18835,   420.645E-06,   7.62090E+03
C:/ALETube/PressureUpdate/LargeStep/DeformErode/JobErode.odb,Step-1,Increment      9: Step Time =,    90.00,"TUBE-1",         15747,  -3.50742E-03,  -3.56342E-03,       1.20000,NA,NA,"",   5.42097E-03,            0.,       1.20084,   420.965E-06,   7.70058E+03
C:/ALETube/PressureUpdate/LargeStep/DeformErode/JobErode.odb,Step-1,Increment      9: Step Time =,    90.00,"TUBE-1",         15806,  -2.92791E-03,  -4.05307E-03,       1.20000,NA,NA,"",   5.42117E-03,            0.,       1.20084,   421.173E-06,   7.68781E+03
C:/ALETube/PressureUpdate/LargeStep/DeformErode/JobErode.odb,Step-1,Increment      9: Step Time =,    90.00,"TUBE-1",         15970,  -2.92791E-03,  -4.05307E-03,       1.21250,NA,NA,"",   5.42149E-03,            0.,       1.21333,   421.495E-06,   7.76735E+03
C:/ALETube/PressureUpdate/LargeStep/DeformErode/JobErode.odb,Step-1,Increment      9: Step Time =,    90.00,"TUBE-1",         15911,  -3.50742E-03,  -3.56342E-03,       1.21250,NA,NA,"",   5.42129E-03,  -433.681E-21,       1.21333,   421.286E-06,   7.78024E+03
C:/ALETube/PressureUpdate/LargeStep/DeformErode/JobErode.odb,Step-1,Increment      9: Step Time =,    90.00,"TUBE-1",         16134,  -2.92791E-03,  -4.05307E-03,       1.22500,NA,NA,"",   5.42182E-03,            0.,       1.22582,   421.816E-06,   7.84687E+03
C:/ALETube/PressureUpdate/LargeStep/DeformErode/JobErode.odb,Step-1,Increment      9: Step Time =,    90.00,"TUBE-1",         16075,  -3.50742E-03,  -3.56342E-03,       1.22500,NA,NA,"",   5.42161E-03,   433.681E-21,       1.22582,   421.606E-06,   7.85989E+03
C:/ALETube/PressureUpdate/LargeStep/DeformErode/JobErode.odb,Step-1,Increment      9: Step Time =,    90.00,"TUBE-1",         16298,  -2.92791E-03,  -4.05307E-03,       1.23750,NA,NA,"",   5.42214E-03,            0.,       1.23831,   422.138E-06,   7.92638E+03
C:/ALETube/PressureUpdate/LargeStep/DeformErode/JobErode.odb,Step-1,Increment      9: Step Time =,    90.00,"TUBE-1",         16239,  -3.50742E-03,  -3.56342E-03,       1.23750,NA,NA,"",   5.42193E-03,            0.,       1.23831,   421.926E-06,   7.93953E+03
C:/ALETube/PressureUpdate/LargeStep/DeformErode/JobErode.odb,Step-1,Increment      9: Step Time =,    90.00,"TUBE-1",         16462,  -2.92791E-03,  -4.05307E-03,          1.25,NA,NA,"",   5.42246E-03,            0.,       1.25080,   422.459E-06,   8.00587E+03
C:/ALETube/PressureUpdate/LargeStep/DeformErode/JobErode.odb,Step-1,Increment      9: Step Time =,    90.00,"TUBE-1",         16403,  -3.50742E-03,  -3.56342E-03,          1.25,NA,NA,"",   5.42225E-03,  -165.935E-12,       1.25080,   422.246E-06,   8.01915E+03
C:/ALETube/PressureUpdate/LargeStep/DeformErode/JobErode.odb,Step-1,Increment      9: Step Time =,    90.00,"TUBE-1",         16567,  -3.50742E-03,  -3.56342E-03,       1.26250,NA,NA,"",   5.42257E-03,            0.,       1.26329,   422.567E-06,   8.09875E+03
C:/ALETube/PressureUpdate/LargeStep/DeformErode/JobErode.odb,Step-1,Increment      9: Step Time =,    90.00,"TUBE-1",         16626,  -2.92791E-03,  -4.05307E-03,       1.26250,NA,NA,"",   5.42278E-03,   433.681E-21,       1.26329,   422.780E-06,   8.08534E+03
C:/ALETube/PressureUpdate/LargeStep/DeformErode/JobErode.odb,Step-1,Increment      9: Step Time =,    90.00,"TUBE-1",         16790,  -2.92791E-03,  -4.05307E-03,       1.27500,NA,NA,"",   5.42310E-03,   188.736E-12,       1.27578,   423.102E-06,   8.16481E+03
C:/ALETube/PressureUpdate/LargeStep/DeformErode/JobErode.odb,Step-1,Increment      9: Step Time =,    90.00,"TUBE-1",         16731,  -3.50742E-03,  -3.56342E-03,       1.27500,NA,NA,"",   5.42289E-03,            0.,       1.27578,   422.887E-06,   8.17834E+03
C:/ALETube/PressureUpdate/LargeStep/DeformErode/JobErode.odb,Step-1,Increment      9: Step Time =,    90.00,"TUBE-1",         16954,  -2.92791E-03,  -4.05307E-03,       1.28750,NA,NA,"",   5.42342E-03,   188.736E-12,       1.28826,   423.423E-06,   8.24425E+03
C:/ALETube/PressureUpdate/LargeStep/DeformErode/JobErode.odb,Step-1,Increment      9: Step Time =,    90.00,"TUBE-1",         16895,  -3.50742E-03,  -3.56342E-03,       1.28750,NA,NA,"",   5.42321E-03,  -433.681E-21,       1.28826,   423.207E-06,   8.25792E+03
C:/ALETube/PressureUpdate/LargeStep/DeformErode/JobErode.odb,Step-1,Increment      9: Step Time =,    90.00,"TUBE-1",         17118,  -2.92791E-03,  -4.05307E-03,       1.30000,NA,NA,"",   5.42374E-03,   188.736E-12,       1.30075,   423.744E-06,   8.32369E+03
C:/ALETube/PressureUpdate/LargeStep/DeformErode/JobErode.odb,Step-1,Increment      9: Step Time =,    90.00,"TUBE-1",         17059,  -3.50742E-03,  -3.56342E-03,       1.30000,NA,NA,"",   5.42353E-03,  -433.681E-21,       1.30075,   423.527E-06,   8.33748E+03
C:/ALETube/PressureUpdate/LargeStep/DeformErode/JobErode.odb,Step-1,Increment      9: Step Time =,    90.00,"TUBE-1",         17282,  -2.92791E-03,  -4.05307E-03,        1.3125,NA,NA,"",   5.42407E-03,   433.681E-21,       1.31324,   424.065E-06,   8.40310E+03
C:/ALETube/PressureUpdate/LargeStep/DeformErode/JobErode.odb,Step-1,Increment      9: Step Time =,    90.00,"TUBE-1",         17223,  -3.50742E-03,  -3.56342E-03,        1.3125,NA,NA,"",   5.42385E-03,            0.,       1.31324,   423.847E-06,   8.41703E+03
C:/ALETube/PressureUpdate/LargeStep/DeformErode/JobErode.odb,Step-1,Increment      9: Step Time =,    90.00,"TUBE-1",         17387,  -3.50742E-03,  -3.56342E-03,       1.32500,NA,NA,"",   5.42417E-03,  -433.681E-21,       1.32573,   424.167E-06,   8.49656E+03
C:/ALETube/PressureUpdate/LargeStep/DeformErode/JobErode.odb,Step-1,Increment      9: Step Time =,    90.00,"TUBE-1",         17446,  -2.92791E-03,  -4.05307E-03,       1.32500,NA,NA,"",   5.42439E-03,            0.,       1.32573,   424.387E-06,   8.48250E+03
C:/ALETube/PressureUpdate/LargeStep/DeformErode/JobErode.odb,Step-1,Increment      9: Step Time =,    90.00,"TUBE-1",         17610,  -2.92791E-03,  -4.05307E-03,       1.33750,NA,NA,"",   5.42471E-03,            0.,       1.33822,   424.708E-06,   8.56189E+03
C:/ALETube/PressureUpdate/LargeStep/DeformErode/JobErode.odb,Step-1,Increment      9: Step Time =,    90.00,"TUBE-1",         17551,  -3.50742E-03,  -3.56342E-03,       1.33750,NA,NA,"",   5.42449E-03,   433.681E-21,       1.33822,   424.487E-06,   8.57607E+03
C:/ALETube/PressureUpdate/LargeStep/DeformErode/JobErode.odb,Step-1,Increment      9: Step Time =,    90.00,"TUBE-1",         17774,  -2.92791E-03,  -4.05307E-03,       1.35000,NA,NA,"",   5.42503E-03,   433.681E-21,       1.35071,   425.029E-06,   8.64127E+03
C:/ALETube/PressureUpdate/LargeStep/DeformErode/JobErode.odb,Step-1,Increment      9: Step Time =,    90.00,"TUBE-1",         17715,  -3.50742E-03,  -3.56342E-03,       1.35000,NA,NA,"",   5.42481E-03,  -163.327E-12,       1.35071,   424.807E-06,   8.65557E+03
C:/ALETube/PressureUpdate/LargeStep/DeformErode/JobErode.odb,Step-1,Increment      9: Step Time =,    90.00,"TUBE-1",         17938,  -2.92791E-03,  -4.05307E-03,       1.36250,NA,NA,"",   5.42535E-03,            0.,       1.36320,   425.350E-06,   8.72062E+03
C:/ALETube/PressureUpdate/LargeStep/DeformErode/JobErode.odb,Step-1,Increment      9: Step Time =,    90.00,"TUBE-1",         17879,  -3.50742E-03,  -3.56342E-03,       1.36250,NA,NA,"",   5.42513E-03,   433.681E-21,       1.36320,   425.127E-06,   8.73506E+03
C:/ALETube/PressureUpdate/LargeStep/DeformErode/JobErode.odb,Step-1,Increment      9: Step Time =,    90.00,"TUBE-1",         18102,  -2.92791E-03,  -4.05307E-03,         1.375,NA,NA,"",   5.42567E-03,  -433.681E-21,       1.37569,   425.671E-06,   8.79997E+03
C:/ALETube/PressureUpdate/LargeStep/DeformErode/JobErode.odb,Step-1,Increment      9: Step Time =,    90.00,"TUBE-1",         18043,  -3.50742E-03,  -3.56342E-03,         1.375,NA,NA,"",   5.42545E-03,            0.,       1.37569,   425.447E-06,   8.81453E+03
C:/ALETube/PressureUpdate/LargeStep/DeformErode/JobErode.odb,Step-1,Increment      9: Step Time =,    90.00,"TUBE-1",         18207,  -3.50742E-03,  -3.56342E-03,       1.38750,NA,NA,"",   5.42577E-03,            0.,       1.38818,   425.767E-06,   8.89399E+03
C:/ALETube/PressureUpdate/LargeStep/DeformErode/JobErode.odb,Step-1,Increment      9: Step Time =,    90.00,"TUBE-1",         18266,  -2.92791E-03,  -4.05307E-03,       1.38750,NA,NA,"",   5.42599E-03,   433.681E-21,       1.38818,   425.992E-06,   8.87929E+03
C:/ALETube/PressureUpdate/LargeStep/DeformErode/JobErode.odb,Step-1,Increment      9: Step Time =,    90.00,"TUBE-1",         18430,  -2.92791E-03,  -4.05307E-03,       1.40000,NA,NA,"",   5.42631E-03,            0.,       1.40067,   426.313E-06,   8.95861E+03
C:/ALETube/PressureUpdate/LargeStep/DeformErode/JobErode.odb,Step-1,Increment      9: Step Time =,    90.00,"TUBE-1",         18371,  -3.50742E-03,  -3.56342E-03,       1.40000,NA,NA,"",   5.42609E-03,            0.,       1.40067,   426.087E-06,   8.97343E+03
C:/ALETube/PressureUpdate/LargeStep/DeformErode/JobErode.odb,Step-1,Increment      9: Step Time =,    90.00,"TUBE-1",         18594,  -2.92791E-03,  -4.05307E-03,       1.41250,NA,NA,"",   5.42663E-03,            0.,       1.41315,   426.634E-06,   9.03791E+03
C:/ALETube/PressureUpdate/LargeStep/DeformErode/JobErode.odb,Step-1,Increment      9: Step Time =,    90.00,"TUBE-1",         18535,  -3.50742E-03,  -3.56342E-03,       1.41250,NA,NA,"",   5.42641E-03,            0.,       1.41315,   426.407E-06,   9.05286E+03
C:/ALETube/PressureUpdate/LargeStep/DeformErode/JobErode.odb,Step-1,Increment      9: Step Time =,    90.00,"TUBE-1",         18758,  -2.92791E-03,  -4.05307E-03,       1.42500,NA,NA,"",   5.42696E-03,  -433.681E-21,       1.42564,   426.955E-06,   9.11719E+03
C:/ALETube/PressureUpdate/LargeStep/DeformErode/JobErode.odb,Step-1,Increment      9: Step Time =,    90.00,"TUBE-1",         18699,  -3.50742E-03,  -3.56342E-03,       1.42500,NA,NA,"",   5.42673E-03,  -163.327E-12,       1.42564,   426.727E-06,   9.13227E+03
C:/ALETube/PressureUpdate/LargeStep/DeformErode/JobErode.odb,Step-1,Increment      9: Step Time =,    90.00,"TUBE-1",         18922,  -2.92791E-03,  -4.05307E-03,        1.4375,NA,NA,"",   5.42728E-03,   433.681E-21,       1.43813,   427.276E-06,   9.19646E+03
C:/ALETube/PressureUpdate/LargeStep/DeformErode/JobErode.odb,Step-1,Increment      9: Step Time =,    90.00,"TUBE-1",         18863,  -3.50742E-03,  -3.56342E-03,        1.4375,NA,NA,"",   5.42705E-03,   329.262E-12,       1.43813,   427.047E-06,   9.21166E+03
C:/ALETube/PressureUpdate/LargeStep/DeformErode/JobErode.odb,Step-1,Increment      9: Step Time =,    90.00,"TUBE-1",         19027,  -3.50742E-03,  -3.56342E-03,       1.45000,NA,NA,"",   5.42737E-03,   433.681E-21,       1.45062,   427.367E-06,   9.29104E+03
C:/ALETube/PressureUpdate/LargeStep/DeformErode/JobErode.odb,Step-1,Increment      9: Step Time =,    90.00,"TUBE-1",         19086,  -2.92791E-03,  -4.05307E-03,       1.45000,NA,NA,"",   5.42760E-03,            0.,       1.45062,   427.597E-06,   9.27571E+03
C:/ALETube/PressureUpdate/LargeStep/DeformErode/JobErode.odb,Step-1,Increment      9: Step Time =,    90.00,"TUBE-1",         19250,  -2.92791E-03,  -4.05307E-03,       1.46250,NA,NA,"",   5.42792E-03,            0.,       1.46311,   427.918E-06,   9.35496E+03
C:/ALETube/PressureUpdate/LargeStep/DeformErode/JobErode.odb,Step-1,Increment      9: Step Time =,    90.00,"TUBE-1",         19191,  -3.50742E-03,  -3.56342E-03,       1.46250,NA,NA,"",   5.42769E-03,   433.681E-21,       1.46311,   427.687E-06,   9.37041E+03
C:/ALETube/PressureUpdate/LargeStep/DeformErode/JobErode.odb,Step-1,Increment      9: Step Time =,    90.00,"TUBE-1",         19414,  -2.92791E-03,  -4.05307E-03,       1.47500,NA,NA,"",   5.42824E-03,            0.,       1.47559,   428.239E-06,   9.43418E+03
C:/ALETube/PressureUpdate/LargeStep/DeformErode/JobErode.odb,Step-1,Increment      9: Step Time =,    90.00,"TUBE-1",         19355,  -3.50742E-03,  -3.56342E-03,       1.47500,NA,NA,"",   5.42801E-03,            0.,       1.47559,   428.006E-06,   9.44977E+03
C:/ALETube/PressureUpdate/LargeStep/DeformErode/JobErode.odb,Step-1,Increment      9: Step Time =,    90.00,"TUBE-1",         19578,  -2.92791E-03,  -4.05307E-03,       1.48750,NA,NA,"",   5.42856E-03,            0.,       1.48808,   428.560E-06,   9.51339E+03
C:/ALETube/PressureUpdate/LargeStep/DeformErode/JobErode.odb,Step-1,Increment      9: Step Time =,    90.00,"TUBE-1",         19519,  -3.50742E-03,  -3.56342E-03,       1.48750,NA,NA,"",   5.42833E-03,   165.935E-12,       1.48808,   428.326E-06,   9.52910E+03
C:/ALETube/PressureUpdate/LargeStep/DeformErode/JobErode.odb,Step-1,Increment      9: Step Time =,    90.00,"TUBE-1",         19742,  -2.92791E-03,  -4.05307E-03,           1.5,NA,NA,"",   5.42888E-03,            0.,       1.50057,   428.881E-06,   9.59259E+03
C:/ALETube/PressureUpdate/LargeStep/DeformErode/JobErode.odb,Step-1,Increment      9: Step Time =,    90.00,"TUBE-1",         19683,  -3.50742E-03,  -3.56342E-03,           1.5,NA,NA,"",   5.42865E-03,            0.,       1.50057,   428.646E-06,   9.60843E+03
C:/ALETube/PressureUpdate/LargeStep/DeformErode/JobErode.odb,Step-1,Increment      9: Step Time =,    90.00,"TUBE-1",         19847,  -3.50742E-03,  -3.56342E-03,       1.51250,NA,NA,"",   5.42897E-03,            0.,       1.51306,   428.966E-06,   9.68774E+03
C:/ALETube/PressureUpdate/LargeStep/DeformErode/JobErode.odb,Step-1,Increment      9: Step Time =,    90.00,"TUBE-1",         19906,  -2.92791E-03,  -4.05307E-03,       1.51250,NA,NA,"",   5.42920E-03,  -433.681E-21,       1.51306,   429.202E-06,   9.67177E+03
C:/ALETube/PressureUpdate/LargeStep/DeformErode/JobErode.odb,Step-1,Increment      9: Step Time =,    90.00,"TUBE-1",         20070,  -2.92791E-03,  -4.05307E-03,       1.52500,NA,NA,"",   5.42952E-03,  -433.681E-21,       1.52555,   429.522E-06,   9.75093E+03
C:/ALETube/PressureUpdate/LargeStep/DeformErode/JobErode.odb,Step-1,Increment      9: Step Time =,    90.00,"TUBE-1",         20011,  -3.50742E-03,  -3.56342E-03,       1.52500,NA,NA,"",   5.42929E-03,            0.,       1.52555,   429.285E-06,   9.76703E+03
C:/ALETube/PressureUpdate/LargeStep/DeformErode/JobErode.odb,Step-1,Increment      9: Step Time =,    90.00,"TUBE-1",         20234,  -2.92791E-03,  -4.05307E-03,       1.53750,NA,NA,"",   5.42984E-03,            0.,       1.53803,   429.843E-06,   9.83009E+03
C:/ALETube/PressureUpdate/LargeStep/DeformErode/JobErode.odb,Step-1,Increment      9: Step Time =,    90.00,"TUBE-1",         20175,  -3.50742E-03,  -3.56342E-03,       1.53750,NA,NA,"",   5.42960E-03,            0.,       1.53803,   429.605E-06,   9.84631E+03
C:/ALETube/PressureUpdate/LargeStep/DeformErode/JobErode.odb,Step-1,Increment      9: Step Time =,    90.00,"TUBE-1",         20398,  -2.92791E-03,  -4.05307E-03,       1.55000,NA,NA,"",   5.43016E-03,            0.,       1.55052,   430.164E-06,   9.90922E+03
C:/ALETube/PressureUpdate/LargeStep/DeformErode/JobErode.odb,Step-1,Increment      9: Step Time =,    90.00,"TUBE-1",         20339,  -3.50742E-03,  -3.56342E-03,       1.55000,NA,NA,"",   5.42992E-03,  -433.681E-21,       1.55052,   429.925E-06,   9.92557E+03
C:/ALETube/PressureUpdate/LargeStep/DeformErode/JobErode.odb,Step-1,Increment      9: Step Time =,    90.00,"TUBE-1",         20562,  -2.92791E-03,  -4.05307E-03,        1.5625,NA,NA,"",   5.43048E-03,  -433.681E-21,       1.56301,   430.485E-06,   9.98835E+03
C:/ALETube/PressureUpdate/LargeStep/DeformErode/JobErode.odb,Step-1,Increment      9: Step Time =,    90.00,"TUBE-1",         20503,  -3.50742E-03,  -3.56342E-03,        1.5625,NA,NA,"",   5.43024E-03,  -433.681E-21,       1.56301,   430.244E-06,   10.0048E+03
C:/ALETube/PressureUpdate/LargeStep/DeformErode/JobErode.odb,Step-1,Increment      9: Step Time =,    90.00,"TUBE-1",         20667,  -3.50742E-03,  -3.56342E-03,       1.57500,NA,NA,"",   5.43056E-03,            0.,       1.57550,   430.564E-06,   10.0841E+03
C:/ALETube/PressureUpdate/LargeStep/DeformErode/JobErode.odb,Step-1,Increment      9: Step Time =,    90.00,"TUBE-1",         20726,  -2.92791E-03,  -4.05307E-03,       1.57500,NA,NA,"",   5.43081E-03,  -188.736E-12,       1.57550,   430.805E-06,   10.0675E+03
C:/ALETube/PressureUpdate/LargeStep/DeformErode/JobErode.odb,Step-1,Increment      9: Step Time =,    90.00,"TUBE-1",         20890,  -2.92791E-03,  -4.05307E-03,       1.58750,NA,NA,"",   5.43113E-03,            0.,       1.58798,   431.126E-06,   10.1465E+03
C:/ALETube/PressureUpdate/LargeStep/DeformErode/JobErode.odb,Step-1,Increment      9: Step Time =,    90.00,"TUBE-1",         20831,  -3.50742E-03,  -3.56342E-03,       1.58750,NA,NA,"",   5.43088E-03,  -163.327E-12,       1.58798,   430.883E-06,   10.1633E+03
C:/ALETube/PressureUpdate/LargeStep/DeformErode/JobErode.odb,Step-1,Increment      9: Step Time =,    90.00,"TUBE-1",         21054,  -2.92791E-03,  -4.05307E-03,       1.60000,NA,NA,"",   5.43145E-03,  -433.681E-21,       1.60047,   431.447E-06,   10.2256E+03
C:/ALETube/PressureUpdate/LargeStep/DeformErode/JobErode.odb,Step-1,Increment      9: Step Time =,    90.00,"TUBE-1",         20995,  -3.50742E-03,  -3.56342E-03,       1.60000,NA,NA,"",   5.43120E-03,            0.,       1.60047,   431.203E-06,   10.2425E+03
C:/ALETube/PressureUpdate/LargeStep/DeformErode/JobErode.odb,Step-1,Increment      9: Step Time =,    90.00,"TUBE-1",         21218,  -2.92791E-03,  -4.05307E-03,       1.61250,NA,NA,"",   5.43177E-03,            0.,       1.61296,   431.767E-06,   10.3047E+03
C:/ALETube/PressureUpdate/LargeStep/DeformErode/JobErode.odb,Step-1,Increment      9: Step Time =,    90.00,"TUBE-1",         21159,  -3.50742E-03,  -3.56342E-03,       1.61250,NA,NA,"",   5.43152E-03,            0.,       1.61296,   431.522E-06,   10.3217E+03
C:/ALETube/PressureUpdate/LargeStep/DeformErode/JobErode.odb,Step-1,Increment      9: Step Time =,    90.00,"TUBE-1",         21382,  -2.92791E-03,  -4.05307E-03,         1.625,NA,NA,"",   5.43209E-03,   433.681E-21,       1.62544,   432.088E-06,   10.3837E+03
C:/ALETube/PressureUpdate/LargeStep/DeformErode/JobErode.odb,Step-1,Increment      9: Step Time =,    90.00,"TUBE-1",         21323,  -3.50742E-03,  -3.56342E-03,         1.625,NA,NA,"",   5.43184E-03,            0.,       1.62544,   431.842E-06,   10.4008E+03
C:/ALETube/PressureUpdate/LargeStep/DeformErode/JobErode.odb,Step-1,Increment      9: Step Time =,    90.00,"TUBE-1",         21487,  -3.50742E-03,  -3.56342E-03,       1.63750,NA,NA,"",   5.43216E-03,  -163.327E-12,       1.63793,   432.161E-06,   10.4800E+03
C:/ALETube/PressureUpdate/LargeStep/DeformErode/JobErode.odb,Step-1,Increment      9: Step Time =,    90.00,"TUBE-1",         21546,  -2.92791E-03,  -4.05307E-03,       1.63750,NA,NA,"",   5.43241E-03,  -188.736E-12,       1.63793,   432.408E-06,   10.4628E+03
C:/ALETube/PressureUpdate/LargeStep/DeformErode/JobErode.odb,Step-1,Increment      9: Step Time =,    90.00,"TUBE-1",         21710,  -2.92791E-03,  -4.05307E-03,       1.65000,NA,NA,"",   5.43273E-03,  -433.681E-21,       1.65042,   432.729E-06,   10.5418E+03
C:/ALETube/PressureUpdate/LargeStep/DeformErode/JobErode.odb,Step-1,Increment      9: Step Time =,    90.00,"TUBE-1",         21651,  -3.50742E-03,  -3.56342E-03,       1.65000,NA,NA,"",   5.43248E-03,   163.327E-12,       1.65042,   432.481E-06,   10.5592E+03
C:/ALETube/PressureUpdate/LargeStep/DeformErode/JobErode.odb,Step-1,Increment      9: Step Time =,    90.00,"TUBE-1",         21874,  -2.92791E-03,  -4.05307E-03,       1.66250,NA,NA,"",   5.43305E-03,            0.,       1.66290,   433.050E-06,   10.6207E+03
C:/ALETube/PressureUpdate/LargeStep/DeformErode/JobErode.odb,Step-1,Increment      9: Step Time =,    90.00,"TUBE-1",         21815,  -3.50742E-03,  -3.56342E-03,       1.66250,NA,NA,"",   5.43280E-03,  -433.681E-21,       1.66290,   432.801E-06,   10.6382E+03
C:/ALETube/PressureUpdate/LargeStep/DeformErode/JobErode.odb,Step-1,Increment      9: Step Time =,    90.00,"TUBE-1",         22038,  -2.92791E-03,  -4.05307E-03,       1.67500,NA,NA,"",   5.43337E-03,            0.,       1.67539,   433.374E-06,   10.6995E+03
C:/ALETube/PressureUpdate/LargeStep/DeformErode/JobErode.odb,Step-1,Increment      9: Step Time =,    90.00,"TUBE-1",         21979,  -3.50742E-03,  -3.56342E-03,       1.67500,NA,NA,"",   5.43312E-03,            0.,       1.67539,   433.123E-06,   10.7171E+03
C:/ALETube/PressureUpdate/LargeStep/DeformErode/JobErode.odb,Step-1,Increment      9: Step Time =,    90.00,"TUBE-1",         22202,  -2.92791E-03,  -4.05307E-03,        1.6875,NA,NA,"",   5.43369E-03,            0.,       1.68788,   433.694E-06,   10.7785E+03
C:/ALETube/PressureUpdate/LargeStep/DeformErode/JobErode.odb,Step-1,Increment      9: Step Time =,    90.00,"TUBE-1",         22143,  -3.50742E-03,  -3.56342E-03,        1.6875,NA,NA,"",   5.43344E-03,   433.681E-21,       1.68788,   433.442E-06,   10.7962E+03
C:/ALETube/PressureUpdate/LargeStep/DeformErode/JobErode.odb,Step-1,Increment      9: Step Time =,    90.00,"TUBE-1",         22307,  -3.50742E-03,  -3.56342E-03,       1.70000,NA,NA,"",   5.43376E-03,            0.,       1.70036,   433.762E-06,   10.8753E+03
C:/ALETube/PressureUpdate/LargeStep/DeformErode/JobErode.odb,Step-1,Increment      9: Step Time =,    90.00,"TUBE-1",         22366,  -2.92791E-03,  -4.05307E-03,       1.70000,NA,NA,"",   5.43401E-03,            0.,       1.70036,   434.014E-06,   10.8574E+03
C:/ALETube/PressureUpdate/LargeStep/DeformErode/JobErode.odb,Step-1,Increment      9: Step Time =,    90.00,"TUBE-1",         22530,  -2.92791E-03,  -4.05307E-03,       1.71250,NA,NA,"",   5.43433E-03,  -433.681E-21,       1.71285,   434.335E-06,   10.9364E+03
C:/ALETube/PressureUpdate/LargeStep/DeformErode/JobErode.odb,Step-1,Increment      9: Step Time =,    90.00,"TUBE-1",         22471,  -3.50742E-03,  -3.56342E-03,       1.71250,NA,NA,"",   5.43408E-03,   165.935E-12,       1.71285,   434.081E-06,   10.9544E+03
C:/ALETube/PressureUpdate/LargeStep/DeformErode/JobErode.odb,Step-1,Increment      9: Step Time =,    90.00,"TUBE-1",         22694,  -2.92791E-03,  -4.05307E-03,       1.72500,NA,NA,"",   5.43466E-03,  -433.681E-21,       1.72533,   434.656E-06,   11.0153E+03
C:/ALETube/PressureUpdate/LargeStep/DeformErode/JobErode.odb,Step-1,Increment      9: Step Time =,    90.00,"TUBE-1",         22635,  -3.50742E-03,  -3.56342E-03,       1.72500,NA,NA,"",   5.43440E-03,            0.,       1.72533,   434.401E-06,   11.0334E+03
C:/ALETube/PressureUpdate/LargeStep/DeformErode/JobErode.odb,Step-1,Increment      9: Step Time =,    90.00,"TUBE-1",         22858,  -2.92791E-03,  -4.05307E-03,       1.73750,NA,NA,"",   5.43498E-03,            0.,       1.73782,   434.979E-06,   11.0940E+03
C:/ALETube/PressureUpdate/LargeStep/DeformErode/JobErode.odb,Step-1,Increment      9: Step Time =,    90.00,"TUBE-1",         22799,  -3.50742E-03,  -3.56342E-03,       1.73750,NA,NA,"",   5.43472E-03,            0.,       1.73782,   434.723E-06,   11.1122E+03
C:/ALETube/PressureUpdate/LargeStep/DeformErode/JobErode.odb,Step-1,Increment      9: Step Time =,    90.00,"TUBE-1",         23022,  -2.92791E-03,  -4.05307E-03,          1.75,NA,NA,"",   5.43530E-03,  -433.681E-21,       1.75031,   435.299E-06,   11.1729E+03
C:/ALETube/PressureUpdate/LargeStep/DeformErode/JobErode.odb,Step-1,Increment      9: Step Time =,    90.00,"TUBE-1",         22963,  -3.50742E-03,  -3.56342E-03,          1.75,NA,NA,"",   5.43504E-03,  -165.935E-12,       1.75031,   435.042E-06,   11.1912E+03
C:/ALETube/PressureUpdate/LargeStep/DeformErode/JobErode.odb,Step-1,Increment      9: Step Time =,    90.00,"TUBE-1",         23127,  -3.50742E-03,  -3.56342E-03,       1.76250,NA,NA,"",   5.43536E-03,            0.,       1.76279,   435.361E-06,   11.2702E+03
C:/ALETube/PressureUpdate/LargeStep/DeformErode/JobErode.odb,Step-1,Increment      9: Step Time =,    90.00,"TUBE-1",         23186,  -2.92791E-03,  -4.05307E-03,       1.76250,NA,NA,"",   5.43562E-03,            0.,       1.76279,   435.619E-06,   11.2517E+03
C:/ALETube/PressureUpdate/LargeStep/DeformErode/JobErode.odb,Step-1,Increment      9: Step Time =,    90.00,"TUBE-1",         23350,  -2.92791E-03,  -4.05307E-03,       1.77500,NA,NA,"",   5.43594E-03,  -433.681E-21,       1.77528,   435.941E-06,   11.3305E+03
C:/ALETube/PressureUpdate/LargeStep/DeformErode/JobErode.odb,Step-1,Increment      9: Step Time =,    90.00,"TUBE-1",         23291,  -3.50742E-03,  -3.56342E-03,       1.77500,NA,NA,"",   5.43568E-03,            0.,       1.77528,   435.682E-06,   11.3491E+03
C:/ALETube/PressureUpdate/LargeStep/DeformErode/JobErode.odb,Step-1,Increment      9: Step Time =,    90.00,"TUBE-1",         23514,  -2.92791E-03,  -4.05307E-03,       1.78750,NA,NA,"",   5.43626E-03,            0.,       1.78776,   436.262E-06,   11.4093E+03
C:/ALETube/PressureUpdate/LargeStep/DeformErode/JobErode.odb,Step-1,Increment      9: Step Time =,    90.00,"TUBE-1",         23455,  -3.50742E-03,  -3.56342E-03,       1.78750,NA,NA,"",   5.43600E-03,            0.,       1.78776,   436.001E-06,   11.4280E+03
C:/ALETube/PressureUpdate/LargeStep/DeformErode/JobErode.odb,Step-1,Increment      9: Step Time =,    90.00,"TUBE-1",         23678,  -2.92791E-03,  -4.05307E-03,       1.80000,NA,NA,"",   5.43658E-03,            0.,       1.80025,   436.583E-06,   11.4881E+03
C:/ALETube/PressureUpdate/LargeStep/DeformErode/JobErode.odb,Step-1,Increment      9: Step Time =,    90.00,"TUBE-1",         23619,  -3.50742E-03,  -3.56342E-03,       1.80000,NA,NA,"",   5.43632E-03,   433.681E-21,       1.80025,   436.321E-06,   11.5069E+03
C:/ALETube/PressureUpdate/LargeStep/DeformErode/JobErode.odb,Step-1,Increment      9: Step Time =,    90.00,"TUBE-1",         23842,  -2.92791E-03,  -4.05307E-03,        1.8125,NA,NA,"",   5.43690E-03,  -433.681E-21,       1.81273,   436.903E-06,   11.5669E+03
C:/ALETube/PressureUpdate/LargeStep/DeformErode/JobErode.odb,Step-1,Increment      9: Step Time =,    90.00,"TUBE-1",         23783,  -3.50742E-03,  -3.56342E-03,        1.8125,NA,NA,"",   5.43664E-03,            0.,       1.81273,   436.641E-06,   11.5859E+03
C:/ALETube/PressureUpdate/LargeStep/DeformErode/JobErode.odb,Step-1,Increment      9: Step Time =,    90.00,"TUBE-1",         23947,  -3.50742E-03,  -3.56342E-03,       1.82500,NA,NA,"",   5.43696E-03,            0.,       1.82522,   436.960E-06,   11.6648E+03
C:/ALETube/PressureUpdate/LargeStep/DeformErode/JobErode.odb,Step-1,Increment      9: Step Time =,    90.00,"TUBE-1",         24006,  -2.92791E-03,  -4.05307E-03,       1.82500,NA,NA,"",   5.43722E-03,  -272.682E-12,       1.82522,   437.223E-06,   11.6457E+03
C:/ALETube/PressureUpdate/LargeStep/DeformErode/JobErode.odb,Step-1,Increment      9: Step Time =,    90.00,"TUBE-1",         24170,  -2.92791E-03,  -4.05307E-03,       1.83750,NA,NA,"",   5.43754E-03,            0.,       1.83770,   437.543E-06,   11.7245E+03
C:/ALETube/PressureUpdate/LargeStep/DeformErode/JobErode.odb,Step-1,Increment      9: Step Time =,    90.00,"TUBE-1",         24111,  -3.50742E-03,  -3.56342E-03,       1.83750,NA,NA,"",   5.43728E-03,            0.,       1.83770,   437.279E-06,   11.7437E+03
C:/ALETube/PressureUpdate/LargeStep/DeformErode/JobErode.odb,Step-1,Increment      9: Step Time =,    90.00,"TUBE-1",         24334,  -2.92791E-03,  -4.05307E-03,       1.85000,NA,NA,"",   5.43786E-03,   433.681E-21,       1.85019,   437.864E-06,   11.8033E+03
C:/ALETube/PressureUpdate/LargeStep/DeformErode/JobErode.odb,Step-1,Increment      9: Step Time =,    90.00,"TUBE-1",         24275,  -3.50742E-03,  -3.56342E-03,       1.85000,NA,NA,"",   5.43760E-03,  -433.681E-21,       1.85019,   437.598E-06,   11.8226E+03
C:/ALETube/PressureUpdate/LargeStep/DeformErode/JobErode.odb,Step-1,Increment      9: Step Time =,    90.00,"TUBE-1",         24498,  -2.92791E-03,  -4.05307E-03,       1.86250,NA,NA,"",   5.43818E-03,   188.736E-12,       1.86267,   438.184E-06,   11.8821E+03
C:/ALETube/PressureUpdate/LargeStep/DeformErode/JobErode.odb,Step-1,Increment      9: Step Time =,    90.00,"TUBE-1",         24439,  -3.50742E-03,  -3.56342E-03,       1.86250,NA,NA,"",   5.43792E-03,            0.,       1.86267,   437.917E-06,   11.9015E+03
C:/ALETube/PressureUpdate/LargeStep/DeformErode/JobErode.odb,Step-1,Increment      9: Step Time =,    90.00,"TUBE-1",         24662,  -2.92791E-03,  -4.05307E-03,         1.875,NA,NA,"",   5.43850E-03,            0.,       1.87516,   438.504E-06,   11.9608E+03
C:/ALETube/PressureUpdate/LargeStep/DeformErode/JobErode.odb,Step-1,Increment      9: Step Time =,    90.00,"TUBE-1",         24603,  -3.50742E-03,  -3.56342E-03,         1.875,NA,NA,"",   5.43824E-03,            0.,       1.87516,   438.236E-06,   11.9804E+03
C:/ALETube/PressureUpdate/LargeStep/DeformErode/JobErode.odb,Step-1,Increment      9: Step Time =,    90.00,"TUBE-1",         24767,  -3.50742E-03,  -3.56342E-03,       1.88750,NA,NA,"",   5.43855E-03,  -433.681E-21,       1.88764,   438.555E-06,   12.0593E+03
C:/ALETube/PressureUpdate/LargeStep/DeformErode/JobErode.odb,Step-1,Increment      9: Step Time =,    90.00,"TUBE-1",         24826,  -2.92791E-03,  -4.05307E-03,       1.88750,NA,NA,"",   5.43882E-03,            0.,       1.88764,   438.824E-06,   12.0396E+03
C:/ALETube/PressureUpdate/LargeStep/DeformErode/JobErode.odb,Step-1,Increment      9: Step Time =,    90.00,"TUBE-1",         24990,  -2.92791E-03,  -4.05307E-03,       1.90000,NA,NA,"",   5.43914E-03,            0.,       1.90013,   439.144E-06,   12.1183E+03
C:/ALETube/PressureUpdate/LargeStep/DeformErode/JobErode.odb,Step-1,Increment      9: Step Time =,    90.00,"TUBE-1",         24931,  -3.50742E-03,  -3.56342E-03,       1.90000,NA,NA,"",   5.43887E-03,  -433.681E-21,       1.90013,   438.874E-06,   12.1382E+03
C:/ALETube/PressureUpdate/LargeStep/DeformErode/JobErode.odb,Step-1,Increment      9: Step Time =,    90.00,"TUBE-1",         25154,  -2.92791E-03,  -4.05307E-03,       1.91250,NA,NA,"",   5.43946E-03,   433.681E-21,       1.91261,   439.464E-06,   12.1970E+03
C:/ALETube/PressureUpdate/LargeStep/DeformErode/JobErode.odb,Step-1,Increment      9: Step Time =,    90.00,"TUBE-1",         25095,  -3.50742E-03,  -3.56342E-03,       1.91250,NA,NA,"",   5.43919E-03,            0.,       1.91261,   439.193E-06,   12.2169E+03
C:/ALETube/PressureUpdate/LargeStep/DeformErode/JobErode.odb,Step-1,Increment      9: Step Time =,    90.00,"TUBE-1",         25318,  -2.92791E-03,  -4.05307E-03,       1.92500,NA,NA,"",   5.43978E-03,   433.681E-21,       1.92510,   439.784E-06,   12.2758E+03
C:/ALETube/PressureUpdate/LargeStep/DeformErode/JobErode.odb,Step-1,Increment      9: Step Time =,    90.00,"TUBE-1",         25259,  -3.50742E-03,  -3.56342E-03,       1.92500,NA,NA,"",   5.43951E-03,            0.,       1.92510,   439.512E-06,   12.2959E+03
C:/ALETube/PressureUpdate/LargeStep/DeformErode/JobErode.odb,Step-1,Increment      9: Step Time =,    90.00,"TUBE-1",         25482,  -2.92791E-03,  -4.05307E-03,        1.9375,NA,NA,"",   5.44010E-03,            0.,       1.93758,   440.104E-06,   12.3543E+03
C:/ALETube/PressureUpdate/LargeStep/DeformErode/JobErode.odb,Step-1,Increment      9: Step Time =,    90.00,"TUBE-1",         25423,  -3.50742E-03,  -3.56342E-03,        1.9375,NA,NA,"",   5.43983E-03,   433.681E-21,       1.93758,   439.831E-06,   12.3745E+03
C:/ALETube/PressureUpdate/LargeStep/DeformErode/JobErode.odb,Step-1,Increment      9: Step Time =,    90.00,"TUBE-1",         25587,  -3.50742E-03,  -3.56342E-03,       1.95000,NA,NA,"",   5.44015E-03,  -433.681E-21,       1.95006,   440.149E-06,   12.4536E+03
C:/ALETube/PressureUpdate/LargeStep/DeformErode/JobErode.odb,Step-1,Increment      9: Step Time =,    90.00,"TUBE-1",         25646,  -2.92791E-03,  -4.05307E-03,       1.95000,NA,NA,"",   5.44042E-03,            0.,       1.95006,   440.423E-06,   12.4333E+03
C:/ALETube/PressureUpdate/LargeStep/DeformErode/JobErode.odb,Step-1,Increment      9: Step Time =,    90.00,"TUBE-1",         25810,  -2.92791E-03,  -4.05307E-03,       1.96250,NA,NA,"",   5.44074E-03,   433.681E-21,       1.96255,   440.744E-06,   12.5110E+03
C:/ALETube/PressureUpdate/LargeStep/DeformErode/JobErode.odb,Step-1,Increment      9: Step Time =,    90.00,"TUBE-1",         25751,  -3.50742E-03,  -3.56342E-03,       1.96250,NA,NA,"",   5.44047E-03,            0.,       1.96255,   440.468E-06,   12.5318E+03
C:/ALETube/PressureUpdate/LargeStep/DeformErode/JobErode.odb,Step-1,Increment      9: Step Time =,    90.00,"TUBE-1",         25974,  -2.92791E-03,  -4.05307E-03,       1.97500,NA,NA,"",   5.44107E-03,            0.,       1.97503,   441.073E-06,   12.5935E+03
C:/ALETube/PressureUpdate/LargeStep/DeformErode/JobErode.odb,Step-1,Increment      9: Step Time =,    90.00,"TUBE-1",         25915,  -3.50742E-03,  -3.56342E-03,       1.97500,NA,NA,"",   5.44080E-03,  -433.681E-21,       1.97503,   440.796E-06,   12.6134E+03
C:/ALETube/PressureUpdate/LargeStep/DeformErode/JobErode.odb,Step-1,Increment      9: Step Time =,    90.00,"TUBE-1",         26138,  -2.92791E-03,  -4.05307E-03,       1.98750,NA,NA,"",   5.44135E-03,  -433.681E-21,       1.98752,   441.352E-06,   12.6583E+03
C:/ALETube/PressureUpdate/LargeStep/DeformErode/JobErode.odb,Step-1,Increment      9: Step Time =,    90.00,"TUBE-1",         26079,  -3.50742E-03,  -3.56342E-03,       1.98750,NA,NA,"",   5.44107E-03,  -165.935E-12,       1.98752,   441.073E-06,   12.6809E+03
C:/ALETube/PressureUpdate/LargeStep/DeformErode/JobErode.odb,Step-1,Increment      9: Step Time =,    90.00,"TUBE-1",         26302,  -2.92791E-03,  -4.05307E-03,            2.,NA,NA,"",   5.44087E-03,   272.682E-12,            2.,   440.870E-06,   12.6395E+03
C:/ALETube/PressureUpdate/LargeStep/DeformErode/JobErode.odb,Step-1,Increment      9: Step Time =,    90.00,"TUBE-1",         26243,  -3.50742E-03,  -3.56342E-03,            2.,NA,NA,"",   5.44068E-03,   433.681E-21,            2.,   440.681E-06,   12.6796E+03
C:/ALETube/PressureUpdate/LargeStep/DeformErode/JobErode.odb,Step-1,Increment     10: Step Time =,    100.0,"TUBE-1",            62,  -2.92791E-03,  -4.05307E-03,            0.,NA,NA,"",   5.48566E-03,            0.,   1.71429E-03,   485.655E-06,       13.7252
C:/ALETube/PressureUpdate/LargeStep/DeformErode/JobErode.odb,Step-1,Increment     10: Step Time =,    100.0,"TUBE-1",             3,  -3.50742E-03,  -3.56342E-03,            0.,NA,NA,"",   5.48561E-03,            0.,   1.71427E-03,   485.609E-06,       13.6481
C:/ALETube/PressureUpdate/LargeStep/DeformErode/JobErode.odb,Step-1,Increment     10: Step Time =,    100.0,"TUBE-1",           226,  -2.92791E-03,  -4.05307E-03,   12.5000E-03,NA,NA,"",   5.45918E-03,            0.,   13.7968E-03,   459.184E-06,       60.8908
C:/ALETube/PressureUpdate/LargeStep/DeformErode/JobErode.odb,Step-1,Increment     10: Step Time =,    100.0,"TUBE-1",           167,  -3.50742E-03,  -3.56342E-03,   12.5000E-03,NA,NA,"",   5.45907E-03,  -433.681E-21,   13.7971E-03,   459.074E-06,       61.1750
C:/ALETube/PressureUpdate/LargeStep/DeformErode/JobErode.odb,Step-1,Increment     10: Step Time =,    100.0,"TUBE-1",           331,  -3.50742E-03,  -3.56342E-03,   25.0000E-03,NA,NA,"",   5.45938E-03,            0.,   26.2880E-03,   459.381E-06,       142.565
C:/ALETube/PressureUpdate/LargeStep/DeformErode/JobErode.odb,Step-1,Increment     10: Step Time =,    100.0,"TUBE-1",           390,  -2.92791E-03,  -4.05307E-03,   25.0000E-03,NA,NA,"",   5.45949E-03,   433.681E-21,   26.2879E-03,   459.493E-06,       142.119
C:/ALETube/PressureUpdate/LargeStep/DeformErode/JobErode.odb,Step-1,Increment     10: Step Time =,    100.0,"TUBE-1",           554,  -2.92791E-03,  -4.05307E-03,   37.5000E-03,NA,NA,"",   5.45979E-03,            0.,   38.7878E-03,   459.793E-06,       220.451
C:/ALETube/PressureUpdate/LargeStep/DeformErode/JobErode.odb,Step-1,Increment     10: Step Time =,    100.0,"TUBE-1",           495,  -3.50742E-03,  -3.56342E-03,   37.5000E-03,NA,NA,"",   5.45968E-03,   433.681E-21,   38.7878E-03,   459.680E-06,       221.144
C:/ALETube/PressureUpdate/LargeStep/DeformErode/JobErode.odb,Step-1,Increment     10: Step Time =,    100.0,"TUBE-1",           718,  -2.92791E-03,  -4.05307E-03,   50.0000E-03,NA,NA,"",   5.46010E-03,            0.,   51.2874E-03,   460.096E-06,       300.423
C:/ALETube/PressureUpdate/LargeStep/DeformErode/JobErode.odb,Step-1,Increment     10: Step Time =,    100.0,"TUBE-1",           659,  -3.50742E-03,  -3.56342E-03,   50.0000E-03,NA,NA,"",   5.45998E-03,   165.935E-12,   51.2874E-03,   459.981E-06,       301.328
C:/ALETube/PressureUpdate/LargeStep/DeformErode/JobErode.odb,Step-1,Increment     10: Step Time =,    100.0,"TUBE-1",           823,  -3.50742E-03,  -3.56342E-03,      62.5E-03,NA,NA,"",   5.46028E-03,   163.327E-12,   63.7870E-03,   460.281E-06,       380.887
C:/ALETube/PressureUpdate/LargeStep/DeformErode/JobErode.odb,Step-1,Increment     10: Step Time =,    100.0,"TUBE-1",           882,  -2.92791E-03,  -4.05307E-03,      62.5E-03,NA,NA,"",   5.46040E-03,            0.,   63.7870E-03,   460.397E-06,       379.748
C:/ALETube/PressureUpdate/LargeStep/DeformErode/JobErode.odb,Step-1,Increment     10: Step Time =,    100.0,"TUBE-1",          1046,  -2.92791E-03,  -4.05307E-03,   75.0000E-03,NA,NA,"",   5.46070E-03,            0.,   76.2865E-03,   460.698E-06,       459.257
C:/ALETube/PressureUpdate/LargeStep/DeformErode/JobErode.odb,Step-1,Increment     10: Step Time =,    100.0,"TUBE-1",           987,  -3.50742E-03,  -3.56342E-03,   75.0000E-03,NA,NA,"",   5.46058E-03,  -433.681E-21,   76.2865E-03,   460.581E-06,       460.618
C:/ALETube/PressureUpdate/LargeStep/DeformErode/JobErode.odb,Step-1,Increment     10: Step Time =,    100.0,"TUBE-1",          1210,  -2.92791E-03,  -4.05307E-03,   87.5000E-03,NA,NA,"",   5.46100E-03,  -433.681E-21,   88.7858E-03,   461.000E-06,       538.695
C:/ALETube/PressureUpdate/LargeStep/DeformErode/JobErode.odb,Step-1,Increment     10: Step Time =,    100.0,"TUBE-1",          1151,  -3.50742E-03,  -3.56342E-03,   87.5000E-03,NA,NA,"",   5.46088E-03,  -433.681E-21,   88.7858E-03,   460.881E-06,       540.283
C:/ALETube/PressureUpdate/LargeStep/DeformErode/JobErode.odb,Step-1,Increment     10: Step Time =,    100.0,"TUBE-1",          1374,  -2.92791E-03,  -4.05307E-03,   100.000E-03,NA,NA,"",   5.46130E-03,  -433.681E-21,   101.285E-03,   461.301E-06,       618.137
C:/ALETube/PressureUpdate/LargeStep/DeformErode/JobErode.odb,Step-1,Increment     10: Step Time =,    100.0,"TUBE-1",          1315,  -3.50742E-03,  -3.56342E-03,   100.000E-03,NA,NA,"",   5.46118E-03,            0.,   101.285E-03,   461.181E-06,       619.951
C:/ALETube/PressureUpdate/LargeStep/DeformErode/JobErode.odb,Step-1,Increment     10: Step Time =,    100.0,"TUBE-1",          1538,  -2.92791E-03,  -4.05307E-03,   112.500E-03,NA,NA,"",   5.46160E-03,            0.,   113.784E-03,   461.603E-06,       697.558
C:/ALETube/PressureUpdate/LargeStep/DeformErode/JobErode.odb,Step-1,Increment     10: Step Time =,    100.0,"TUBE-1",          1479,  -3.50742E-03,  -3.56342E-03,   112.500E-03,NA,NA,"",   5.46148E-03,            0.,   113.784E-03,   461.481E-06,       699.598
C:/ALETube/PressureUpdate/LargeStep/DeformErode/JobErode.odb,Step-1,Increment     10: Step Time =,    100.0,"TUBE-1",          1643,  -3.50742E-03,  -3.56342E-03,      125.E-03,NA,NA,"",   5.46178E-03,            0.,   126.283E-03,   461.781E-06,       779.233
C:/ALETube/PressureUpdate/LargeStep/DeformErode/JobErode.odb,Step-1,Increment     10: Step Time =,    100.0,"TUBE-1",          1702,  -2.92791E-03,  -4.05307E-03,      125.E-03,NA,NA,"",   5.46190E-03,  -433.681E-21,   126.283E-03,   461.904E-06,       776.967
C:/ALETube/PressureUpdate/LargeStep/DeformErode/JobErode.odb,Step-1,Increment     10: Step Time =,    100.0,"TUBE-1",          1866,  -2.92791E-03,  -4.05307E-03,   137.500E-03,NA,NA,"",   5.46221E-03,            0.,   138.782E-03,   462.206E-06,       856.361
C:/ALETube/PressureUpdate/LargeStep/DeformErode/JobErode.odb,Step-1,Increment     10: Step Time =,    100.0,"TUBE-1",          1807,  -3.50742E-03,  -3.56342E-03,   137.500E-03,NA,NA,"",   5.46208E-03,            0.,   138.782E-03,   462.081E-06,       858.852
C:/ALETube/PressureUpdate/LargeStep/DeformErode/JobErode.odb,Step-1,Increment     10: Step Time =,    100.0,"TUBE-1",          2030,  -2.92791E-03,  -4.05307E-03,   150.000E-03,NA,NA,"",   5.46251E-03,   433.681E-21,   151.281E-03,   462.507E-06,       935.740
C:/ALETube/PressureUpdate/LargeStep/DeformErode/JobErode.odb,Step-1,Increment     10: Step Time =,    100.0,"TUBE-1",          1971,  -3.50742E-03,  -3.56342E-03,   150.000E-03,NA,NA,"",   5.46238E-03,  -433.681E-21,   151.281E-03,   462.381E-06,       938.457
C:/ALETube/PressureUpdate/LargeStep/DeformErode/JobErode.odb,Step-1,Increment     10: Step Time =,    100.0,"TUBE-1",          2194,  -2.92791E-03,  -4.05307E-03,   162.500E-03,NA,NA,"",   5.46281E-03,  -433.681E-21,   163.780E-03,   462.809E-06,   1.01511E+03
C:/ALETube/PressureUpdate/LargeStep/DeformErode/JobErode.odb,Step-1,Increment     10: Step Time =,    100.0,"TUBE-1",          2135,  -3.50742E-03,  -3.56342E-03,   162.500E-03,NA,NA,"",   5.46268E-03,            0.,   163.780E-03,   462.681E-06,   1.01805E+03
C:/ALETube/PressureUpdate/LargeStep/DeformErode/JobErode.odb,Step-1,Increment     10: Step Time =,    100.0,"TUBE-1",          2358,  -2.92791E-03,  -4.05307E-03,   175.000E-03,NA,NA,"",   5.46311E-03,            0.,   176.278E-03,   463.110E-06,   1.09446E+03
C:/ALETube/PressureUpdate/LargeStep/DeformErode/JobErode.odb,Step-1,Increment     10: Step Time =,    100.0,"TUBE-1",          2299,  -3.50742E-03,  -3.56342E-03,   175.000E-03,NA,NA,"",   5.46298E-03,            0.,   176.278E-03,   462.981E-06,   1.09762E+03
C:/ALETube/PressureUpdate/LargeStep/DeformErode/JobErode.odb,Step-1,Increment     10: Step Time =,    100.0,"TUBE-1",          2463,  -3.50742E-03,  -3.56342E-03,     187.5E-03,NA,NA,"",   5.46328E-03,            0.,   188.777E-03,   463.281E-06,   1.17718E+03
C:/ALETube/PressureUpdate/LargeStep/DeformErode/JobErode.odb,Step-1,Increment     10: Step Time =,    100.0,"TUBE-1",          2522,  -2.92791E-03,  -4.05307E-03,     187.5E-03,NA,NA,"",   5.46341E-03,            0.,   188.777E-03,   463.411E-06,   1.17379E+03
C:/ALETube/PressureUpdate/LargeStep/DeformErode/JobErode.odb,Step-1,Increment     10: Step Time =,    100.0,"TUBE-1",          2686,  -2.92791E-03,  -4.05307E-03,   200.000E-03,NA,NA,"",   5.46371E-03,   433.681E-21,   201.275E-03,   463.713E-06,   1.25311E+03
C:/ALETube/PressureUpdate/LargeStep/DeformErode/JobErode.odb,Step-1,Increment     10: Step Time =,    100.0,"TUBE-1",          2627,  -3.50742E-03,  -3.56342E-03,   200.000E-03,NA,NA,"",   5.46358E-03,  -433.681E-21,   201.275E-03,   463.581E-06,   1.25673E+03
C:/ALETube/PressureUpdate/LargeStep/DeformErode/JobErode.odb,Step-1,Increment     10: Step Time =,    100.0,"TUBE-1",          2850,  -2.92791E-03,  -4.05307E-03,   212.500E-03,NA,NA,"",   5.46401E-03,            0.,   213.774E-03,   464.014E-06,   1.33242E+03
C:/ALETube/PressureUpdate/LargeStep/DeformErode/JobErode.odb,Step-1,Increment     10: Step Time =,    100.0,"TUBE-1",          2791,  -3.50742E-03,  -3.56342E-03,   212.500E-03,NA,NA,"",   5.46388E-03,   165.935E-12,   213.774E-03,   463.881E-06,   1.33626E+03
C:/ALETube/PressureUpdate/LargeStep/DeformErode/JobErode.odb,Step-1,Increment     10: Step Time =,    100.0,"TUBE-1",          3014,  -2.92791E-03,  -4.05307E-03,   225.000E-03,NA,NA,"",   5.46432E-03,   188.736E-12,   226.272E-03,   464.315E-06,   1.41171E+03
C:/ALETube/PressureUpdate/LargeStep/DeformErode/JobErode.odb,Step-1,Increment     10: Step Time =,    100.0,"TUBE-1",          2955,  -3.50742E-03,  -3.56342E-03,   225.000E-03,NA,NA,"",   5.46418E-03,            0.,   226.272E-03,   464.181E-06,   1.41578E+03
C:/ALETube/PressureUpdate/LargeStep/DeformErode/JobErode.odb,Step-1,Increment     10: Step Time =,    100.0,"TUBE-1",          3178,  -2.92791E-03,  -4.05307E-03,   237.500E-03,NA,NA,"",   5.46462E-03,            0.,   238.770E-03,   464.616E-06,   1.49099E+03
C:/ALETube/PressureUpdate/LargeStep/DeformErode/JobErode.odb,Step-1,Increment     10: Step Time =,    100.0,"TUBE-1",          3119,  -3.50742E-03,  -3.56342E-03,   237.500E-03,NA,NA,"",   5.46448E-03,            0.,   238.770E-03,   464.481E-06,   1.49528E+03
C:/ALETube/PressureUpdate/LargeStep/DeformErode/JobErode.odb,Step-1,Increment     10: Step Time =,    100.0,"TUBE-1",          3283,  -3.50742E-03,  -3.56342E-03,      250.E-03,NA,NA,"",   5.46478E-03,   433.681E-21,   251.268E-03,   464.781E-06,   1.57477E+03
C:/ALETube/PressureUpdate/LargeStep/DeformErode/JobErode.odb,Step-1,Increment     10: Step Time =,    100.0,"TUBE-1",          3342,  -2.92791E-03,  -4.05307E-03,      250.E-03,NA,NA,"",   5.46492E-03,  -433.681E-21,   251.268E-03,   464.918E-06,   1.57025E+03
C:/ALETube/PressureUpdate/LargeStep/DeformErode/JobErode.odb,Step-1,Increment     10: Step Time =,    100.0,"TUBE-1",          3506,  -2.92791E-03,  -4.05307E-03,   262.500E-03,NA,NA,"",   5.46522E-03,  -188.736E-12,   263.766E-03,   465.219E-06,   1.64950E+03
C:/ALETube/PressureUpdate/LargeStep/DeformErode/JobErode.odb,Step-1,Increment     10: Step Time =,    100.0,"TUBE-1",          3447,  -3.50742E-03,  -3.56342E-03,   262.500E-03,NA,NA,"",   5.46508E-03,            0.,   263.766E-03,   465.081E-06,   1.65424E+03
C:/ALETube/PressureUpdate/LargeStep/DeformErode/JobErode.odb,Step-1,Increment     10: Step Time =,    100.0,"TUBE-1",          3670,  -2.92791E-03,  -4.05307E-03,   275.000E-03,NA,NA,"",   5.46552E-03,            0.,   276.264E-03,   465.520E-06,   1.72873E+03
C:/ALETube/PressureUpdate/LargeStep/DeformErode/JobErode.odb,Step-1,Increment     10: Step Time =,    100.0,"TUBE-1",          3611,  -3.50742E-03,  -3.56342E-03,   275.000E-03,NA,NA,"",   5.46538E-03,            0.,   276.264E-03,   465.380E-06,   1.73370E+03
C:/ALETube/PressureUpdate/LargeStep/DeformErode/JobErode.odb,Step-1,Increment     10: Step Time =,    100.0,"TUBE-1",          3834,  -2.92791E-03,  -4.05307E-03,   287.500E-03,NA,NA,"",   5.46582E-03,            0.,   288.762E-03,   465.821E-06,   1.80795E+03
C:/ALETube/PressureUpdate/LargeStep/DeformErode/JobErode.odb,Step-1,Increment     10: Step Time =,    100.0,"TUBE-1",          3775,  -3.50742E-03,  -3.56342E-03,   287.500E-03,NA,NA,"",   5.46568E-03,            0.,   288.762E-03,   465.680E-06,   1.81314E+03
C:/ALETube/PressureUpdate/LargeStep/DeformErode/JobErode.odb,Step-1,Increment     10: Step Time =,    100.0,"TUBE-1",          3998,  -2.92791E-03,  -4.05307E-03,   300.000E-03,NA,NA,"",   5.46612E-03,            0.,   301.259E-03,   466.123E-06,   1.88715E+03
C:/ALETube/PressureUpdate/LargeStep/DeformErode/JobErode.odb,Step-1,Increment     10: Step Time =,    100.0,"TUBE-1",          3939,  -3.50742E-03,  -3.56342E-03,   300.000E-03,NA,NA,"",   5.46598E-03,   433.681E-21,   301.259E-03,   465.980E-06,   1.89257E+03
C:/ALETube/PressureUpdate/LargeStep/DeformErode/JobErode.odb,Step-1,Increment     10: Step Time =,    100.0,"TUBE-1",          4103,  -3.50742E-03,  -3.56342E-03,     312.5E-03,NA,NA,"",   5.46628E-03,   163.327E-12,   313.757E-03,   466.280E-06,   1.97198E+03
C:/ALETube/PressureUpdate/LargeStep/DeformErode/JobErode.odb,Step-1,Increment     10: Step Time =,    100.0,"TUBE-1",          4162,  -2.92791E-03,  -4.05307E-03,     312.5E-03,NA,NA,"",   5.46642E-03,  -433.681E-21,   313.757E-03,   466.424E-06,   1.96634E+03
C:/ALETube/PressureUpdate/LargeStep/DeformErode/JobErode.odb,Step-1,Increment     10: Step Time =,    100.0,"TUBE-1",          4326,  -2.92791E-03,  -4.05307E-03,   325.000E-03,NA,NA,"",   5.46672E-03,  -433.681E-21,   326.254E-03,   466.725E-06,   2.04552E+03
C:/ALETube/PressureUpdate/LargeStep/DeformErode/JobErode.odb,Step-1,Increment     10: Step Time =,    100.0,"TUBE-1",          4267,  -3.50742E-03,  -3.56342E-03,   325.000E-03,NA,NA,"",   5.46658E-03,            0.,   326.254E-03,   466.579E-06,   2.05138E+03
C:/ALETube/PressureUpdate/LargeStep/DeformErode/JobErode.odb,Step-1,Increment     10: Step Time =,    100.0,"TUBE-1",          4490,  -2.92791E-03,  -4.05307E-03,   337.500E-03,NA,NA,"",   5.46703E-03,  -272.682E-12,   338.752E-03,   467.026E-06,   2.12468E+03
C:/ALETube/PressureUpdate/LargeStep/DeformErode/JobErode.odb,Step-1,Increment     10: Step Time =,    100.0,"TUBE-1",          4431,  -3.50742E-03,  -3.56342E-03,   337.500E-03,NA,NA,"",   5.46688E-03,            0.,   338.752E-03,   466.879E-06,   2.13076E+03
C:/ALETube/PressureUpdate/LargeStep/DeformErode/JobErode.odb,Step-1,Increment     10: Step Time =,    100.0,"TUBE-1",          4654,  -2.92791E-03,  -4.05307E-03,   350.000E-03,NA,NA,"",   5.46733E-03,  -433.681E-21,   351.249E-03,   467.327E-06,   2.20382E+03
C:/ALETube/PressureUpdate/LargeStep/DeformErode/JobErode.odb,Step-1,Increment     10: Step Time =,    100.0,"TUBE-1",          4595,  -3.50742E-03,  -3.56342E-03,   350.000E-03,NA,NA,"",   5.46718E-03,            0.,   351.249E-03,   467.179E-06,   2.21013E+03
C:/ALETube/PressureUpdate/LargeStep/DeformErode/JobErode.odb,Step-1,Increment     10: Step Time =,    100.0,"TUBE-1",          4818,  -2.92791E-03,  -4.05307E-03,   362.500E-03,NA,NA,"",   5.46763E-03,   433.681E-21,   363.746E-03,   467.628E-06,   2.28295E+03
C:/ALETube/PressureUpdate/LargeStep/DeformErode/JobErode.odb,Step-1,Increment     10: Step Time =,    100.0,"TUBE-1",          4759,  -3.50742E-03,  -3.56342E-03,   362.500E-03,NA,NA,"",   5.46748E-03,            0.,   363.746E-03,   467.479E-06,   2.28948E+03
C:/ALETube/PressureUpdate/LargeStep/DeformErode/JobErode.odb,Step-1,Increment     10: Step Time =,    100.0,"TUBE-1",          4923,  -3.50742E-03,  -3.56342E-03,      375.E-03,NA,NA,"",   5.46778E-03,  -433.681E-21,   376.243E-03,   467.778E-06,   2.36882E+03
C:/ALETube/PressureUpdate/LargeStep/DeformErode/JobErode.odb,Step-1,Increment     10: Step Time =,    100.0,"TUBE-1",          4982,  -2.92791E-03,  -4.05307E-03,      375.E-03,NA,NA,"",   5.46793E-03,            0.,   376.243E-03,   467.929E-06,   2.36207E+03
C:/ALETube/PressureUpdate/LargeStep/DeformErode/JobErode.odb,Step-1,Increment     10: Step Time =,    100.0,"TUBE-1",          5146,  -2.92791E-03,  -4.05307E-03,   387.500E-03,NA,NA,"",   5.46823E-03,            0.,   388.740E-03,   468.230E-06,   2.44117E+03
C:/ALETube/PressureUpdate/LargeStep/DeformErode/JobErode.odb,Step-1,Increment     10: Step Time =,    100.0,"TUBE-1",          5087,  -3.50742E-03,  -3.56342E-03,   387.500E-03,NA,NA,"",   5.46808E-03,            0.,   388.740E-03,   468.078E-06,   2.44815E+03
C:/ALETube/PressureUpdate/LargeStep/DeformErode/JobErode.odb,Step-1,Increment     10: Step Time =,    100.0,"TUBE-1",          5310,  -2.92791E-03,  -4.05307E-03,   400.000E-03,NA,NA,"",   5.46853E-03,            0.,   401.237E-03,   468.531E-06,   2.52026E+03
C:/ALETube/PressureUpdate/LargeStep/DeformErode/JobErode.odb,Step-1,Increment     10: Step Time =,    100.0,"TUBE-1",          5251,  -3.50742E-03,  -3.56342E-03,   400.000E-03,NA,NA,"",   5.46838E-03,  -433.681E-21,   401.237E-03,   468.378E-06,   2.52746E+03
C:/ALETube/PressureUpdate/LargeStep/DeformErode/JobErode.odb,Step-1,Increment     10: Step Time =,    100.0,"TUBE-1",          5474,  -2.92791E-03,  -4.05307E-03,   412.500E-03,NA,NA,"",   5.46883E-03,   433.681E-21,   413.733E-03,   468.832E-06,   2.59933E+03
C:/ALETube/PressureUpdate/LargeStep/DeformErode/JobErode.odb,Step-1,Increment     10: Step Time =,    100.0,"TUBE-1",          5415,  -3.50742E-03,  -3.56342E-03,   412.500E-03,NA,NA,"",   5.46868E-03,            0.,   413.733E-03,   468.677E-06,   2.60675E+03
C:/ALETube/PressureUpdate/LargeStep/DeformErode/JobErode.odb,Step-1,Increment     10: Step Time =,    100.0,"TUBE-1",          5638,  -2.92791E-03,  -4.05307E-03,   425.000E-03,NA,NA,"",   5.46913E-03,  -433.681E-21,   426.230E-03,   469.133E-06,   2.67839E+03
C:/ALETube/PressureUpdate/LargeStep/DeformErode/JobErode.odb,Step-1,Increment     10: Step Time =,    100.0,"TUBE-1",          5579,  -3.50742E-03,  -3.56342E-03,   425.000E-03,NA,NA,"",   5.46898E-03,            0.,   426.230E-03,   468.977E-06,   2.68603E+03
C:/ALETube/PressureUpdate/LargeStep/DeformErode/JobErode.odb,Step-1,Increment     10: Step Time =,    100.0,"TUBE-1",          5743,  -3.50742E-03,  -3.56342E-03,     437.5E-03,NA,NA,"",   5.46928E-03,  -433.681E-21,   438.726E-03,   469.276E-06,   2.76530E+03
C:/ALETube/PressureUpdate/LargeStep/DeformErode/JobErode.odb,Step-1,Increment     10: Step Time =,    100.0,"TUBE-1",          5802,  -2.92791E-03,  -4.05307E-03,     437.5E-03,NA,NA,"",   5.46943E-03,  -188.736E-12,   438.726E-03,   469.434E-06,   2.75743E+03
C:/ALETube/PressureUpdate/LargeStep/DeformErode/JobErode.odb,Step-1,Increment     10: Step Time =,    100.0,"TUBE-1",          5966,  -2.92791E-03,  -4.05307E-03,   450.000E-03,NA,NA,"",   5.46974E-03,   188.736E-12,   451.223E-03,   469.735E-06,   2.83646E+03
C:/ALETube/PressureUpdate/LargeStep/DeformErode/JobErode.odb,Step-1,Increment     10: Step Time =,    100.0,"TUBE-1",          5907,  -3.50742E-03,  -3.56342E-03,   450.000E-03,NA,NA,"",   5.46958E-03,   165.935E-12,   451.223E-03,   469.576E-06,   2.84455E+03
C:/ALETube/PressureUpdate/LargeStep/DeformErode/JobErode.odb,Step-1,Increment     10: Step Time =,    100.0,"TUBE-1",          6130,  -2.92791E-03,  -4.05307E-03,   462.500E-03,NA,NA,"",   5.47004E-03,            0.,   463.719E-03,   470.036E-06,   2.91547E+03
C:/ALETube/PressureUpdate/LargeStep/DeformErode/JobErode.odb,Step-1,Increment     10: Step Time =,    100.0,"TUBE-1",          6071,  -3.50742E-03,  -3.56342E-03,   462.500E-03,NA,NA,"",   5.46988E-03,   433.681E-21,   463.719E-03,   469.876E-06,   2.92378E+03
C:/ALETube/PressureUpdate/LargeStep/DeformErode/JobErode.odb,Step-1,Increment     10: Step Time =,    100.0,"TUBE-1",          6294,  -2.92791E-03,  -4.05307E-03,   475.000E-03,NA,NA,"",   5.47034E-03,  -433.681E-21,   476.215E-03,   470.337E-06,   2.99447E+03
C:/ALETube/PressureUpdate/LargeStep/DeformErode/JobErode.odb,Step-1,Increment     10: Step Time =,    100.0,"TUBE-1",          6235,  -3.50742E-03,  -3.56342E-03,   475.000E-03,NA,NA,"",   5.47017E-03,            0.,   476.215E-03,   470.175E-06,   3.00301E+03
C:/ALETube/PressureUpdate/LargeStep/DeformErode/JobErode.odb,Step-1,Increment     10: Step Time =,    100.0,"TUBE-1",          6458,  -2.92791E-03,  -4.05307E-03,   487.500E-03,NA,NA,"",   5.47064E-03,            0.,   488.712E-03,   470.638E-06,   3.07346E+03
C:/ALETube/PressureUpdate/LargeStep/DeformErode/JobErode.odb,Step-1,Increment     10: Step Time =,    100.0,"TUBE-1",          6399,  -3.50742E-03,  -3.56342E-03,   487.500E-03,NA,NA,"",   5.47047E-03,   433.681E-21,   488.712E-03,   470.475E-06,   3.08221E+03
C:/ALETube/PressureUpdate/LargeStep/DeformErode/JobErode.odb,Step-1,Increment     10: Step Time =,    100.0,"TUBE-1",          6563,  -3.50742E-03,  -3.56342E-03,      500.E-03,NA,NA,"",   5.47077E-03,   433.681E-21,   501.208E-03,   470.774E-06,   3.16141E+03
C:/ALETube/PressureUpdate/LargeStep/DeformErode/JobErode.odb,Step-1,Increment     10: Step Time =,    100.0,"TUBE-1",          6622,  -2.92791E-03,  -4.05307E-03,      500.E-03,NA,NA,"",   5.47094E-03,            0.,   501.208E-03,   470.939E-06,   3.15243E+03
C:/ALETube/PressureUpdate/LargeStep/DeformErode/JobErode.odb,Step-1,Increment     10: Step Time =,    100.0,"TUBE-1",          6786,  -2.92791E-03,  -4.05307E-03,   512.500E-03,NA,NA,"",   5.47124E-03,   188.736E-12,   513.703E-03,   471.240E-06,   3.23138E+03
C:/ALETube/PressureUpdate/LargeStep/DeformErode/JobErode.odb,Step-1,Increment     10: Step Time =,    100.0,"TUBE-1",          6727,  -3.50742E-03,  -3.56342E-03,   512.500E-03,NA,NA,"",   5.47107E-03,            0.,   513.703E-03,   471.074E-06,   3.24058E+03
C:/ALETube/PressureUpdate/LargeStep/DeformErode/JobErode.odb,Step-1,Increment     10: Step Time =,    100.0,"TUBE-1",          6950,  -2.92791E-03,  -4.05307E-03,   525.000E-03,NA,NA,"",   5.47154E-03,  -433.681E-21,   526.199E-03,   471.541E-06,   3.31033E+03
C:/ALETube/PressureUpdate/LargeStep/DeformErode/JobErode.odb,Step-1,Increment     10: Step Time =,    100.0,"TUBE-1",          6891,  -3.50742E-03,  -3.56342E-03,   525.000E-03,NA,NA,"",   5.47137E-03,            0.,   526.199E-03,   471.373E-06,   3.31974E+03
C:/ALETube/PressureUpdate/LargeStep/DeformErode/JobErode.odb,Step-1,Increment     10: Step Time =,    100.0,"TUBE-1",          7114,  -2.92791E-03,  -4.05307E-03,   537.500E-03,NA,NA,"",   5.47184E-03,   433.681E-21,   538.695E-03,   471.842E-06,   3.38925E+03
C:/ALETube/PressureUpdate/LargeStep/DeformErode/JobErode.odb,Step-1,Increment     10: Step Time =,    100.0,"TUBE-1",          7055,  -3.50742E-03,  -3.56342E-03,   537.500E-03,NA,NA,"",   5.47167E-03,            0.,   538.695E-03,   471.673E-06,   3.39889E+03
C:/ALETube/PressureUpdate/LargeStep/DeformErode/JobErode.odb,Step-1,Increment     10: Step Time =,    100.0,"TUBE-1",          7278,  -2.92791E-03,  -4.05307E-03,   550.000E-03,NA,NA,"",   5.47214E-03,   433.681E-21,   551.190E-03,   472.142E-06,   3.46817E+03
C:/ALETube/PressureUpdate/LargeStep/DeformErode/JobErode.odb,Step-1,Increment     10: Step Time =,    100.0,"TUBE-1",          7219,  -3.50742E-03,  -3.56342E-03,   550.000E-03,NA,NA,"",   5.47197E-03,            0.,   551.190E-03,   471.972E-06,   3.47803E+03
C:/ALETube/PressureUpdate/LargeStep/DeformErode/JobErode.odb,Step-1,Increment     10: Step Time =,    100.0,"TUBE-1",          7383,  -3.50742E-03,  -3.56342E-03,     562.5E-03,NA,NA,"",   5.47227E-03,            0.,   563.686E-03,   472.271E-06,   3.55715E+03
C:/ALETube/PressureUpdate/LargeStep/DeformErode/JobErode.odb,Step-1,Increment     10: Step Time =,    100.0,"TUBE-1",          7442,  -2.92791E-03,  -4.05307E-03,     562.5E-03,NA,NA,"",   5.47244E-03,   433.681E-21,   563.686E-03,   472.443E-06,   3.54706E+03
C:/ALETube/PressureUpdate/LargeStep/DeformErode/JobErode.odb,Step-1,Increment     10: Step Time =,    100.0,"TUBE-1",          7606,  -2.92791E-03,  -4.05307E-03,   575.000E-03,NA,NA,"",   5.47274E-03,  -433.681E-21,   576.181E-03,   472.744E-06,   3.62595E+03
C:/ALETube/PressureUpdate/LargeStep/DeformErode/JobErode.odb,Step-1,Increment     10: Step Time =,    100.0,"TUBE-1",          7547,  -3.50742E-03,  -3.56342E-03,   575.000E-03,NA,NA,"",   5.47257E-03,            0.,   576.181E-03,   472.571E-06,   3.63625E+03
C:/ALETube/PressureUpdate/LargeStep/DeformErode/JobErode.odb,Step-1,Increment     10: Step Time =,    100.0,"TUBE-1",          7770,  -2.92791E-03,  -4.05307E-03,   587.500E-03,NA,NA,"",   5.47304E-03,            0.,   588.677E-03,   473.045E-06,   3.70481E+03
C:/ALETube/PressureUpdate/LargeStep/DeformErode/JobErode.odb,Step-1,Increment     10: Step Time =,    100.0,"TUBE-1",          7711,  -3.50742E-03,  -3.56342E-03,   587.500E-03,NA,NA,"",   5.47287E-03,            0.,   588.677E-03,   472.870E-06,   3.71534E+03
C:/ALETube/PressureUpdate/LargeStep/DeformErode/JobErode.odb,Step-1,Increment     10: Step Time =,    100.0,"TUBE-1",          7934,  -2.92791E-03,  -4.05307E-03,   600.000E-03,NA,NA,"",   5.47335E-03,            0.,   601.172E-03,   473.345E-06,   3.78367E+03
C:/ALETube/PressureUpdate/LargeStep/DeformErode/JobErode.odb,Step-1,Increment     10: Step Time =,    100.0,"TUBE-1",          7875,  -3.50742E-03,  -3.56342E-03,   600.000E-03,NA,NA,"",   5.47317E-03,   433.681E-21,   601.172E-03,   473.170E-06,   3.79441E+03
C:/ALETube/PressureUpdate/LargeStep/DeformErode/JobErode.odb,Step-1,Increment     10: Step Time =,    100.0,"TUBE-1",          8098,  -2.92791E-03,  -4.05307E-03,   612.500E-03,NA,NA,"",   5.47365E-03,   433.681E-21,   613.667E-03,   473.646E-06,   3.86251E+03
C:/ALETube/PressureUpdate/LargeStep/DeformErode/JobErode.odb,Step-1,Increment     10: Step Time =,    100.0,"TUBE-1",          8039,  -3.50742E-03,  -3.56342E-03,   612.500E-03,NA,NA,"",   5.47347E-03,  -433.681E-21,   613.667E-03,   473.469E-06,   3.87347E+03
C:/ALETube/PressureUpdate/LargeStep/DeformErode/JobErode.odb,Step-1,Increment     10: Step Time =,    100.0,"TUBE-1",          8203,  -3.50742E-03,  -3.56342E-03,      625.E-03,NA,NA,"",   5.47377E-03,   433.681E-21,   626.162E-03,   473.768E-06,   3.95252E+03
C:/ALETube/PressureUpdate/LargeStep/DeformErode/JobErode.odb,Step-1,Increment     10: Step Time =,    100.0,"TUBE-1",          8262,  -2.92791E-03,  -4.05307E-03,      625.E-03,NA,NA,"",   5.47395E-03,            0.,   626.162E-03,   473.947E-06,   3.94133E+03
C:/ALETube/PressureUpdate/LargeStep/DeformErode/JobErode.odb,Step-1,Increment     10: Step Time =,    100.0,"TUBE-1",          8426,  -2.92791E-03,  -4.05307E-03,   637.500E-03,NA,NA,"",   5.47425E-03,            0.,   638.657E-03,   474.248E-06,   4.02014E+03
C:/ALETube/PressureUpdate/LargeStep/DeformErode/JobErode.odb,Step-1,Increment     10: Step Time =,    100.0,"TUBE-1",          8367,  -3.50742E-03,  -3.56342E-03,   637.500E-03,NA,NA,"",   5.47407E-03,            0.,   638.657E-03,   474.068E-06,   4.03155E+03
C:/ALETube/PressureUpdate/LargeStep/DeformErode/JobErode.odb,Step-1,Increment     10: Step Time =,    100.0,"TUBE-1",          8590,  -2.92791E-03,  -4.05307E-03,   650.000E-03,NA,NA,"",   5.47455E-03,            0.,   651.152E-03,   474.548E-06,   4.09894E+03
C:/ALETube/PressureUpdate/LargeStep/DeformErode/JobErode.odb,Step-1,Increment     10: Step Time =,    100.0,"TUBE-1",          8531,  -3.50742E-03,  -3.56342E-03,   650.000E-03,NA,NA,"",   5.47437E-03,   165.935E-12,   651.152E-03,   474.367E-06,   4.11057E+03
C:/ALETube/PressureUpdate/LargeStep/DeformErode/JobErode.odb,Step-1,Increment     10: Step Time =,    100.0,"TUBE-1",          8754,  -2.92791E-03,  -4.05307E-03,   662.500E-03,NA,NA,"",   5.47485E-03,  -188.736E-12,   663.646E-03,   474.849E-06,   4.17772E+03
C:/ALETube/PressureUpdate/LargeStep/DeformErode/JobErode.odb,Step-1,Increment     10: Step Time =,    100.0,"TUBE-1",          8695,  -3.50742E-03,  -3.56342E-03,   662.500E-03,NA,NA,"",   5.47467E-03,            0.,   663.646E-03,   474.666E-06,   4.18957E+03
C:/ALETube/PressureUpdate/LargeStep/DeformErode/JobErode.odb,Step-1,Increment     10: Step Time =,    100.0,"TUBE-1",          8918,  -2.92791E-03,  -4.05307E-03,   675.000E-03,NA,NA,"",   5.47515E-03,            0.,   676.141E-03,   475.150E-06,   4.25649E+03
C:/ALETube/PressureUpdate/LargeStep/DeformErode/JobErode.odb,Step-1,Increment     10: Step Time =,    100.0,"TUBE-1",          8859,  -3.50742E-03,  -3.56342E-03,   675.000E-03,NA,NA,"",   5.47497E-03,            0.,   676.141E-03,   474.965E-06,   4.26856E+03
C:/ALETube/PressureUpdate/LargeStep/DeformErode/JobErode.odb,Step-1,Increment     10: Step Time =,    100.0,"TUBE-1",          9023,  -3.50742E-03,  -3.56342E-03,     687.5E-03,NA,NA,"",   5.47526E-03,            0.,   688.635E-03,   475.265E-06,   4.34753E+03
C:/ALETube/PressureUpdate/LargeStep/DeformErode/JobErode.odb,Step-1,Increment     10: Step Time =,    100.0,"TUBE-1",          9082,  -2.92791E-03,  -4.05307E-03,     687.5E-03,NA,NA,"",   5.47545E-03,            0.,   688.635E-03,   475.450E-06,   4.33524E+03
C:/ALETube/PressureUpdate/LargeStep/DeformErode/JobErode.odb,Step-1,Increment     10: Step Time =,    100.0,"TUBE-1",          9246,  -2.92791E-03,  -4.05307E-03,   700.000E-03,NA,NA,"",   5.47575E-03,  -433.681E-21,   701.130E-03,   475.751E-06,   4.41398E+03
C:/ALETube/PressureUpdate/LargeStep/DeformErode/JobErode.odb,Step-1,Increment     10: Step Time =,    100.0,"TUBE-1",          9187,  -3.50742E-03,  -3.56342E-03,   700.000E-03,NA,NA,"",   5.47556E-03,            0.,   701.130E-03,   475.564E-06,   4.42649E+03
C:/ALETube/PressureUpdate/LargeStep/DeformErode/JobErode.odb,Step-1,Increment     10: Step Time =,    100.0,"TUBE-1",          9410,  -2.92791E-03,  -4.05307E-03,   712.500E-03,NA,NA,"",   5.47605E-03,            0.,   713.624E-03,   476.051E-06,   4.49270E+03
C:/ALETube/PressureUpdate/LargeStep/DeformErode/JobErode.odb,Step-1,Increment     10: Step Time =,    100.0,"TUBE-1",          9351,  -3.50742E-03,  -3.56342E-03,   712.500E-03,NA,NA,"",   5.47586E-03,            0.,   713.624E-03,   475.863E-06,   4.50543E+03
C:/ALETube/PressureUpdate/LargeStep/DeformErode/JobErode.odb,Step-1,Increment     10: Step Time =,    100.0,"TUBE-1",          9574,  -2.92791E-03,  -4.05307E-03,   725.000E-03,NA,NA,"",   5.47635E-03,            0.,   726.118E-03,   476.352E-06,   4.57141E+03
C:/ALETube/PressureUpdate/LargeStep/DeformErode/JobErode.odb,Step-1,Increment     10: Step Time =,    100.0,"TUBE-1",          9515,  -3.50742E-03,  -3.56342E-03,   725.000E-03,NA,NA,"",   5.47616E-03,   433.681E-21,   726.118E-03,   476.162E-06,   4.58436E+03
C:/ALETube/PressureUpdate/LargeStep/DeformErode/JobErode.odb,Step-1,Increment     10: Step Time =,    100.0,"TUBE-1",          9738,  -2.92791E-03,  -4.05307E-03,   737.500E-03,NA,NA,"",   5.47665E-03,   433.681E-21,   738.612E-03,   476.653E-06,   4.65011E+03
C:/ALETube/PressureUpdate/LargeStep/DeformErode/JobErode.odb,Step-1,Increment     10: Step Time =,    100.0,"TUBE-1",          9679,  -3.50742E-03,  -3.56342E-03,   737.500E-03,NA,NA,"",   5.47646E-03,            0.,   738.612E-03,   476.461E-06,   4.66327E+03
C:/ALETube/PressureUpdate/LargeStep/DeformErode/JobErode.odb,Step-1,Increment     10: Step Time =,    100.0,"TUBE-1",          9843,  -3.50742E-03,  -3.56342E-03,      750.E-03,NA,NA,"",   5.47676E-03,   433.681E-21,   751.106E-03,   476.761E-06,   4.74217E+03
C:/ALETube/PressureUpdate/LargeStep/DeformErode/JobErode.odb,Step-1,Increment     10: Step Time =,    100.0,"TUBE-1",          9902,  -2.92791E-03,  -4.05307E-03,      750.E-03,NA,NA,"",   5.47695E-03,            0.,   751.106E-03,   476.953E-06,   4.72879E+03
C:/ALETube/PressureUpdate/LargeStep/DeformErode/JobErode.odb,Step-1,Increment     10: Step Time =,    100.0,"TUBE-1",         10066,  -2.92791E-03,  -4.05307E-03,   762.500E-03,NA,NA,"",   5.47725E-03,   433.681E-21,   763.600E-03,   477.254E-06,   4.80745E+03
C:/ALETube/PressureUpdate/LargeStep/DeformErode/JobErode.odb,Step-1,Increment     10: Step Time =,    100.0,"TUBE-1",         10007,  -3.50742E-03,  -3.56342E-03,   762.500E-03,NA,NA,"",   5.47706E-03,  -163.327E-12,   763.600E-03,   477.060E-06,   4.82106E+03
C:/ALETube/PressureUpdate/LargeStep/DeformErode/JobErode.odb,Step-1,Increment     10: Step Time =,    100.0,"TUBE-1",         10230,  -2.92791E-03,  -4.05307E-03,   775.000E-03,NA,NA,"",   5.47755E-03,   433.681E-21,   776.094E-03,   477.554E-06,   4.88610E+03
C:/ALETube/PressureUpdate/LargeStep/DeformErode/JobErode.odb,Step-1,Increment     10: Step Time =,    100.0,"TUBE-1",         10171,  -3.50742E-03,  -3.56342E-03,   775.000E-03,NA,NA,"",   5.47736E-03,            0.,   776.094E-03,   477.359E-06,   4.89993E+03
C:/ALETube/PressureUpdate/LargeStep/DeformErode/JobErode.odb,Step-1,Increment     10: Step Time =,    100.0,"TUBE-1",         10394,  -2.92791E-03,  -4.05307E-03,   787.500E-03,NA,NA,"",   5.47785E-03,  -433.681E-21,   788.588E-03,   477.855E-06,   4.96474E+03
C:/ALETube/PressureUpdate/LargeStep/DeformErode/JobErode.odb,Step-1,Increment     10: Step Time =,    100.0,"TUBE-1",         10335,  -3.50742E-03,  -3.56342E-03,   787.500E-03,NA,NA,"",   5.47766E-03,            0.,   788.588E-03,   477.658E-06,   4.97878E+03
C:/ALETube/PressureUpdate/LargeStep/DeformErode/JobErode.odb,Step-1,Increment     10: Step Time =,    100.0,"TUBE-1",         10558,  -2.92791E-03,  -4.05307E-03,   800.000E-03,NA,NA,"",   5.47815E-03,  -433.681E-21,   801.081E-03,   478.155E-06,   5.04336E+03
C:/ALETube/PressureUpdate/LargeStep/DeformErode/JobErode.odb,Step-1,Increment     10: Step Time =,    100.0,"TUBE-1",         10499,  -3.50742E-03,  -3.56342E-03,   800.000E-03,NA,NA,"",   5.47796E-03,            0.,   801.081E-03,   477.957E-06,   5.05762E+03
C:/ALETube/PressureUpdate/LargeStep/DeformErode/JobErode.odb,Step-1,Increment     10: Step Time =,    100.0,"TUBE-1",         10663,  -3.50742E-03,  -3.56342E-03,     812.5E-03,NA,NA,"",   5.47826E-03,            0.,   813.575E-03,   478.256E-06,   5.13645E+03
C:/ALETube/PressureUpdate/LargeStep/DeformErode/JobErode.odb,Step-1,Increment     10: Step Time =,    100.0,"TUBE-1",         10722,  -2.92791E-03,  -4.05307E-03,     812.5E-03,NA,NA,"",   5.47846E-03,            0.,   813.575E-03,   478.455E-06,   5.12197E+03
C:/ALETube/PressureUpdate/LargeStep/DeformErode/JobErode.odb,Step-1,Increment     10: Step Time =,    100.0,"TUBE-1",         10886,  -2.92791E-03,  -4.05307E-03,   825.000E-03,NA,NA,"",   5.47876E-03,  -188.736E-12,   826.068E-03,   478.756E-06,   5.20057E+03
C:/ALETube/PressureUpdate/LargeStep/DeformErode/JobErode.odb,Step-1,Increment     10: Step Time =,    100.0,"TUBE-1",         10827,  -3.50742E-03,  -3.56342E-03,   825.000E-03,NA,NA,"",   5.47855E-03,            0.,   826.068E-03,   478.555E-06,   5.21526E+03
C:/ALETube/PressureUpdate/LargeStep/DeformErode/JobErode.odb,Step-1,Increment     10: Step Time =,    100.0,"TUBE-1",         11050,  -2.92791E-03,  -4.05307E-03,   837.500E-03,NA,NA,"",   5.47906E-03,            0.,   838.561E-03,   479.056E-06,   5.27915E+03
C:/ALETube/PressureUpdate/LargeStep/DeformErode/JobErode.odb,Step-1,Increment     10: Step Time =,    100.0,"TUBE-1",         10991,  -3.50742E-03,  -3.56342E-03,   837.500E-03,NA,NA,"",   5.47885E-03,            0.,   838.561E-03,   478.854E-06,   5.29406E+03
C:/ALETube/PressureUpdate/LargeStep/DeformErode/JobErode.odb,Step-1,Increment     10: Step Time =,    100.0,"TUBE-1",         11214,  -2.92791E-03,  -4.05307E-03,   850.000E-03,NA,NA,"",   5.47936E-03,  -433.681E-21,   851.055E-03,   479.357E-06,   5.35771E+03
C:/ALETube/PressureUpdate/LargeStep/DeformErode/JobErode.odb,Step-1,Increment     10: Step Time =,    100.0,"TUBE-1",         11155,  -3.50742E-03,  -3.56342E-03,   850.000E-03,NA,NA,"",   5.47915E-03,            0.,   851.055E-03,   479.153E-06,   5.37284E+03
C:/ALETube/PressureUpdate/LargeStep/DeformErode/JobErode.odb,Step-1,Increment     10: Step Time =,    100.0,"TUBE-1",         11378,  -2.92791E-03,  -4.05307E-03,   862.500E-03,NA,NA,"",   5.47966E-03,            0.,   863.548E-03,   479.657E-06,   5.43626E+03
C:/ALETube/PressureUpdate/LargeStep/DeformErode/JobErode.odb,Step-1,Increment     10: Step Time =,    100.0,"TUBE-1",         11319,  -3.50742E-03,  -3.56342E-03,   862.500E-03,NA,NA,"",   5.47945E-03,            0.,   863.548E-03,   479.452E-06,   5.45161E+03
C:/ALETube/PressureUpdate/LargeStep/DeformErode/JobErode.odb,Step-1,Increment     10: Step Time =,    100.0,"TUBE-1",         11483,  -3.50742E-03,  -3.56342E-03,      875.E-03,NA,NA,"",   5.47975E-03,            0.,   876.041E-03,   479.751E-06,   5.53037E+03
C:/ALETube/PressureUpdate/LargeStep/DeformErode/JobErode.odb,Step-1,Increment     10: Step Time =,    100.0,"TUBE-1",         11542,  -2.92791E-03,  -4.05307E-03,      875.E-03,NA,NA,"",   5.47996E-03,  -433.681E-21,   876.041E-03,   479.957E-06,   5.51480E+03
C:/ALETube/PressureUpdate/LargeStep/DeformErode/JobErode.odb,Step-1,Increment     10: Step Time =,    100.0,"TUBE-1",         11706,  -2.92791E-03,  -4.05307E-03,   887.500E-03,NA,NA,"",   5.48026E-03,   433.681E-21,   888.533E-03,   480.258E-06,   5.59332E+03
C:/ALETube/PressureUpdate/LargeStep/DeformErode/JobErode.odb,Step-1,Increment     10: Step Time =,    100.0,"TUBE-1",         11647,  -3.50742E-03,  -3.56342E-03,   887.500E-03,NA,NA,"",   5.48005E-03,            0.,   888.533E-03,   480.050E-06,   5.60911E+03
C:/ALETube/PressureUpdate/LargeStep/DeformErode/JobErode.odb,Step-1,Increment     10: Step Time =,    100.0,"TUBE-1",         11870,  -2.92791E-03,  -4.05307E-03,   900.000E-03,NA,NA,"",   5.48056E-03,            0.,   901.026E-03,   480.558E-06,   5.67183E+03
C:/ALETube/PressureUpdate/LargeStep/DeformErode/JobErode.odb,Step-1,Increment     10: Step Time =,    100.0,"TUBE-1",         11811,  -3.50742E-03,  -3.56342E-03,   900.000E-03,NA,NA,"",   5.48035E-03,            0.,   901.026E-03,   480.349E-06,   5.68783E+03
C:/ALETube/PressureUpdate/LargeStep/DeformErode/JobErode.odb,Step-1,Increment     10: Step Time =,    100.0,"TUBE-1",         12034,  -2.92791E-03,  -4.05307E-03,   912.500E-03,NA,NA,"",   5.48086E-03,   272.682E-12,   913.519E-03,   480.858E-06,   5.75032E+03
C:/ALETube/PressureUpdate/LargeStep/DeformErode/JobErode.odb,Step-1,Increment     10: Step Time =,    100.0,"TUBE-1",         11975,  -3.50742E-03,  -3.56342E-03,   912.500E-03,NA,NA,"",   5.48065E-03,  -433.681E-21,   913.519E-03,   480.648E-06,   5.76654E+03
C:/ALETube/PressureUpdate/LargeStep/DeformErode/JobErode.odb,Step-1,Increment     10: Step Time =,    100.0,"TUBE-1",         12198,  -2.92791E-03,  -4.05307E-03,   925.000E-03,NA,NA,"",   5.48116E-03,            0.,   926.011E-03,   481.159E-06,   5.82880E+03
C:/ALETube/PressureUpdate/LargeStep/DeformErode/JobErode.odb,Step-1,Increment     10: Step Time =,    100.0,"TUBE-1",         12139,  -3.50742E-03,  -3.56342E-03,   925.000E-03,NA,NA,"",   5.48095E-03,  -433.681E-21,   926.011E-03,   480.947E-06,   5.84524E+03
C:/ALETube/PressureUpdate/LargeStep/DeformErode/JobErode.odb,Step-1,Increment     10: Step Time =,    100.0,"TUBE-1",         12303,  -3.50742E-03,  -3.56342E-03,     937.5E-03,NA,NA,"",   5.48125E-03,            0.,   938.504E-03,   481.246E-06,   5.92392E+03
C:/ALETube/PressureUpdate/LargeStep/DeformErode/JobErode.odb,Step-1,Increment     10: Step Time =,    100.0,"TUBE-1",         12362,  -2.92791E-03,  -4.05307E-03,     937.5E-03,NA,NA,"",   5.48146E-03,            0.,   938.504E-03,   481.459E-06,   5.90726E+03
C:/ALETube/PressureUpdate/LargeStep/DeformErode/JobErode.odb,Step-1,Increment     10: Step Time =,    100.0,"TUBE-1",         12526,  -2.92791E-03,  -4.05307E-03,   950.000E-03,NA,NA,"",   5.48176E-03,            0.,   950.996E-03,   481.759E-06,   5.98571E+03
C:/ALETube/PressureUpdate/LargeStep/DeformErode/JobErode.odb,Step-1,Increment     10: Step Time =,    100.0,"TUBE-1",         12467,  -3.50742E-03,  -3.56342E-03,   950.000E-03,NA,NA,"",   5.48154E-03,            0.,   950.996E-03,   481.545E-06,   6.00259E+03
C:/ALETube/PressureUpdate/LargeStep/DeformErode/JobErode.odb,Step-1,Increment     10: Step Time =,    100.0,"TUBE-1",         12690,  -2.92791E-03,  -4.05307E-03,   962.500E-03,NA,NA,"",   5.48206E-03,            0.,   963.489E-03,   482.059E-06,   6.06415E+03
C:/ALETube/PressureUpdate/LargeStep/DeformErode/JobErode.odb,Step-1,Increment     10: Step Time =,    100.0,"TUBE-1",         12631,  -3.50742E-03,  -3.56342E-03,   962.500E-03,NA,NA,"",   5.48184E-03,            0.,   963.489E-03,   481.844E-06,   6.08124E+03
C:/ALETube/PressureUpdate/LargeStep/DeformErode/JobErode.odb,Step-1,Increment     10: Step Time =,    100.0,"TUBE-1",         12854,  -2.92791E-03,  -4.05307E-03,   975.000E-03,NA,NA,"",   5.48236E-03,            0.,   975.981E-03,   482.360E-06,   6.14257E+03
C:/ALETube/PressureUpdate/LargeStep/DeformErode/JobErode.odb,Step-1,Increment     10: Step Time =,    100.0,"TUBE-1",         12795,  -3.50742E-03,  -3.56342E-03,   975.000E-03,NA,NA,"",   5.48214E-03,            0.,   975.981E-03,   482.142E-06,   6.15988E+03
C:/ALETube/PressureUpdate/LargeStep/DeformErode/JobErode.odb,Step-1,Increment     10: Step Time =,    100.0,"TUBE-1",         13018,  -2.92791E-03,  -4.05307E-03,   987.500E-03,NA,NA,"",   5.48266E-03,            0.,   988.473E-03,   482.660E-06,   6.22098E+03
C:/ALETube/PressureUpdate/LargeStep/DeformErode/JobErode.odb,Step-1,Increment     10: Step Time =,    100.0,"TUBE-1",         12959,  -3.50742E-03,  -3.56342E-03,   987.500E-03,NA,NA,"",   5.48244E-03,            0.,   988.473E-03,   482.441E-06,   6.23850E+03
C:/ALETube/PressureUpdate/LargeStep/DeformErode/JobErode.odb,Step-1,Increment     10: Step Time =,    100.0,"TUBE-1",         13123,  -3.50742E-03,  -3.56342E-03,            1.,NA,NA,"",   5.48274E-03,  -165.935E-12,       1.00096,   482.740E-06,   6.31711E+03
C:/ALETube/PressureUpdate/LargeStep/DeformErode/JobErode.odb,Step-1,Increment     10: Step Time =,    100.0,"TUBE-1",         13182,  -2.92791E-03,  -4.05307E-03,            1.,NA,NA,"",   5.48296E-03,            0.,       1.00096,   482.960E-06,   6.29937E+03
C:/ALETube/PressureUpdate/LargeStep/DeformErode/JobErode.odb,Step-1,Increment     10: Step Time =,    100.0,"TUBE-1",         13346,  -2.92791E-03,  -4.05307E-03,       1.01250,NA,NA,"",   5.48326E-03,  -433.681E-21,       1.01346,   483.260E-06,   6.37775E+03
C:/ALETube/PressureUpdate/LargeStep/DeformErode/JobErode.odb,Step-1,Increment     10: Step Time =,    100.0,"TUBE-1",         13287,  -3.50742E-03,  -3.56342E-03,       1.01250,NA,NA,"",   5.48304E-03,   433.681E-21,       1.01346,   483.039E-06,   6.39571E+03
C:/ALETube/PressureUpdate/LargeStep/DeformErode/JobErode.odb,Step-1,Increment     10: Step Time =,    100.0,"TUBE-1",         13510,  -2.92791E-03,  -4.05307E-03,       1.02500,NA,NA,"",   5.48356E-03,   433.681E-21,       1.02595,   483.560E-06,   6.45611E+03
C:/ALETube/PressureUpdate/LargeStep/DeformErode/JobErode.odb,Step-1,Increment     10: Step Time =,    100.0,"TUBE-1",         13451,  -3.50742E-03,  -3.56342E-03,       1.02500,NA,NA,"",   5.48334E-03,   433.681E-21,       1.02595,   483.338E-06,   6.47429E+03
C:/ALETube/PressureUpdate/LargeStep/DeformErode/JobErode.odb,Step-1,Increment     10: Step Time =,    100.0,"TUBE-1",         13615,  -3.50742E-03,  -3.56342E-03,       1.03750,NA,NA,"",   5.48364E-03,            0.,       1.03844,   483.636E-06,   6.55285E+03
C:/ALETube/PressureUpdate/LargeStep/DeformErode/JobErode.odb,Step-1,Increment     10: Step Time =,    100.0,"TUBE-1",         13674,  -2.92791E-03,  -4.05307E-03,       1.03750,NA,NA,"",   5.48386E-03,   433.681E-21,       1.03844,   483.860E-06,   6.53446E+03
C:/ALETube/PressureUpdate/LargeStep/DeformErode/JobErode.odb,Step-1,Increment     10: Step Time =,    100.0,"TUBE-1",         13838,  -2.92791E-03,  -4.05307E-03,       1.05000,NA,NA,"",   5.48416E-03,            0.,       1.05093,   484.160E-06,   6.61280E+03
C:/ALETube/PressureUpdate/LargeStep/DeformErode/JobErode.odb,Step-1,Increment     10: Step Time =,    100.0,"TUBE-1",         13779,  -3.50742E-03,  -3.56342E-03,       1.05000,NA,NA,"",   5.48393E-03,            0.,       1.05093,   483.935E-06,   6.63140E+03
C:/ALETube/PressureUpdate/LargeStep/DeformErode/JobErode.odb,Step-1,Increment     10: Step Time =,    100.0,"TUBE-1",         14002,  -2.92791E-03,  -4.05307E-03,        1.0625,NA,NA,"",   5.48446E-03,            0.,       1.06342,   484.460E-06,   6.69112E+03
C:/ALETube/PressureUpdate/LargeStep/DeformErode/JobErode.odb,Step-1,Increment     10: Step Time =,    100.0,"TUBE-1",         13943,  -3.50742E-03,  -3.56342E-03,        1.0625,NA,NA,"",   5.48423E-03,            0.,       1.06342,   484.234E-06,   6.70994E+03
C:/ALETube/PressureUpdate/LargeStep/DeformErode/JobErode.odb,Step-1,Increment     10: Step Time =,    100.0,"TUBE-1",         14107,  -3.50742E-03,  -3.56342E-03,       1.07500,NA,NA,"",   5.48453E-03,            0.,       1.07591,   484.532E-06,   6.78846E+03
C:/ALETube/PressureUpdate/LargeStep/DeformErode/JobErode.odb,Step-1,Increment     10: Step Time =,    100.0,"TUBE-1",         14166,  -2.92791E-03,  -4.05307E-03,       1.07500,NA,NA,"",   5.48476E-03,            0.,       1.07591,   484.761E-06,   6.76942E+03
C:/ALETube/PressureUpdate/LargeStep/DeformErode/JobErode.odb,Step-1,Increment     10: Step Time =,    100.0,"TUBE-1",         14330,  -2.92791E-03,  -4.05307E-03,       1.08750,NA,NA,"",   5.48506E-03,            0.,       1.08841,   485.061E-06,   6.84772E+03
C:/ALETube/PressureUpdate/LargeStep/DeformErode/JobErode.odb,Step-1,Increment     10: Step Time =,    100.0,"TUBE-1",         14271,  -3.50742E-03,  -3.56342E-03,       1.08750,NA,NA,"",   5.48483E-03,            0.,       1.08841,   484.831E-06,   6.86697E+03
C:/ALETube/PressureUpdate/LargeStep/DeformErode/JobErode.odb,Step-1,Increment     10: Step Time =,    100.0,"TUBE-1",         14494,  -2.92791E-03,  -4.05307E-03,       1.10000,NA,NA,"",   5.48536E-03,            0.,       1.10090,   485.361E-06,   6.92600E+03
C:/ALETube/PressureUpdate/LargeStep/DeformErode/JobErode.odb,Step-1,Increment     10: Step Time =,    100.0,"TUBE-1",         14435,  -3.50742E-03,  -3.56342E-03,       1.10000,NA,NA,"",   5.48513E-03,            0.,       1.10090,   485.130E-06,   6.94547E+03
C:/ALETube/PressureUpdate/LargeStep/DeformErode/JobErode.odb,Step-1,Increment     10: Step Time =,    100.0,"TUBE-1",         14658,  -2.92791E-03,  -4.05307E-03,       1.11250,NA,NA,"",   5.48566E-03,            0.,       1.11339,   485.661E-06,   7.00426E+03
C:/ALETube/PressureUpdate/LargeStep/DeformErode/JobErode.odb,Step-1,Increment     10: Step Time =,    100.0,"TUBE-1",         14599,  -3.50742E-03,  -3.56342E-03,       1.11250,NA,NA,"",   5.48543E-03,  -165.935E-12,       1.11339,   485.428E-06,   7.02394E+03
C:/ALETube/PressureUpdate/LargeStep/DeformErode/JobErode.odb,Step-1,Increment     10: Step Time =,    100.0,"TUBE-1",         14822,  -2.92791E-03,  -4.05307E-03,         1.125,NA,NA,"",   5.48596E-03,  -433.681E-21,       1.12588,   485.961E-06,   7.08251E+03
C:/ALETube/PressureUpdate/LargeStep/DeformErode/JobErode.odb,Step-1,Increment     10: Step Time =,    100.0,"TUBE-1",         14763,  -3.50742E-03,  -3.56342E-03,         1.125,NA,NA,"",   5.48573E-03,   433.681E-21,       1.12588,   485.727E-06,   7.10241E+03
C:/ALETube/PressureUpdate/LargeStep/DeformErode/JobErode.odb,Step-1,Increment     10: Step Time =,    100.0,"TUBE-1",         14927,  -3.50742E-03,  -3.56342E-03,       1.13750,NA,NA,"",   5.48603E-03,            0.,       1.13837,   486.026E-06,   7.18086E+03
C:/ALETube/PressureUpdate/LargeStep/DeformErode/JobErode.odb,Step-1,Increment     10: Step Time =,    100.0,"TUBE-1",         14986,  -2.92791E-03,  -4.05307E-03,       1.13750,NA,NA,"",   5.48626E-03,            0.,       1.13837,   486.261E-06,   7.16074E+03
C:/ALETube/PressureUpdate/LargeStep/DeformErode/JobErode.odb,Step-1,Increment     10: Step Time =,    100.0,"TUBE-1",         15150,  -2.92791E-03,  -4.05307E-03,       1.15000,NA,NA,"",   5.48656E-03,   433.681E-21,       1.15086,   486.561E-06,   7.23896E+03
C:/ALETube/PressureUpdate/LargeStep/DeformErode/JobErode.odb,Step-1,Increment     10: Step Time =,    100.0,"TUBE-1",         15091,  -3.50742E-03,  -3.56342E-03,       1.15000,NA,NA,"",   5.48632E-03,            0.,       1.15086,   486.324E-06,   7.25930E+03
C:/ALETube/PressureUpdate/LargeStep/DeformErode/JobErode.odb,Step-1,Increment     10: Step Time =,    100.0,"TUBE-1",         15314,  -2.92791E-03,  -4.05307E-03,       1.16250,NA,NA,"",   5.48686E-03,  -433.681E-21,       1.16335,   486.860E-06,   7.31717E+03
C:/ALETube/PressureUpdate/LargeStep/DeformErode/JobErode.odb,Step-1,Increment     10: Step Time =,    100.0,"TUBE-1",         15255,  -3.50742E-03,  -3.56342E-03,       1.16250,NA,NA,"",   5.48662E-03,  -433.681E-21,       1.16335,   486.623E-06,   7.33772E+03
C:/ALETube/PressureUpdate/LargeStep/DeformErode/JobErode.odb,Step-1,Increment     10: Step Time =,    100.0,"TUBE-1",         15478,  -2.92791E-03,  -4.05307E-03,       1.17500,NA,NA,"",   5.48716E-03,            0.,       1.17584,   487.160E-06,   7.39536E+03
C:/ALETube/PressureUpdate/LargeStep/DeformErode/JobErode.odb,Step-1,Increment     10: Step Time =,    100.0,"TUBE-1",         15419,  -3.50742E-03,  -3.56342E-03,       1.17500,NA,NA,"",   5.48692E-03,            0.,       1.17584,   486.921E-06,   7.41613E+03
C:/ALETube/PressureUpdate/LargeStep/DeformErode/JobErode.odb,Step-1,Increment     10: Step Time =,    100.0,"TUBE-1",         15642,  -2.92791E-03,  -4.05307E-03,        1.1875,NA,NA,"",   5.48746E-03,            0.,       1.18833,   487.460E-06,   7.47354E+03
C:/ALETube/PressureUpdate/LargeStep/DeformErode/JobErode.odb,Step-1,Increment     10: Step Time =,    100.0,"TUBE-1",         15583,  -3.50742E-03,  -3.56342E-03,        1.1875,NA,NA,"",   5.48722E-03,  -433.681E-21,       1.18833,   487.220E-06,   7.49452E+03
C:/ALETube/PressureUpdate/LargeStep/DeformErode/JobErode.odb,Step-1,Increment     10: Step Time =,    100.0,"TUBE-1",         15747,  -3.50742E-03,  -3.56342E-03,       1.20000,NA,NA,"",   5.48752E-03,  -433.681E-21,       1.20082,   487.519E-06,   7.57290E+03
C:/ALETube/PressureUpdate/LargeStep/DeformErode/JobErode.odb,Step-1,Increment     10: Step Time =,    100.0,"TUBE-1",         15806,  -2.92791E-03,  -4.05307E-03,       1.20000,NA,NA,"",   5.48776E-03,            0.,       1.20082,   487.760E-06,   7.55171E+03
C:/ALETube/PressureUpdate/LargeStep/DeformErode/JobErode.odb,Step-1,Increment     10: Step Time =,    100.0,"TUBE-1",         15970,  -2.92791E-03,  -4.05307E-03,       1.21250,NA,NA,"",   5.48806E-03,            0.,       1.21331,   488.060E-06,   7.62986E+03
C:/ALETube/PressureUpdate/LargeStep/DeformErode/JobErode.odb,Step-1,Increment     10: Step Time =,    100.0,"TUBE-1",         15911,  -3.50742E-03,  -3.56342E-03,       1.21250,NA,NA,"",   5.48782E-03,  -433.681E-21,       1.21331,   487.817E-06,   7.65126E+03
C:/ALETube/PressureUpdate/LargeStep/DeformErode/JobErode.odb,Step-1,Increment     10: Step Time =,    100.0,"TUBE-1",         16134,  -2.92791E-03,  -4.05307E-03,       1.22500,NA,NA,"",   5.48836E-03,            0.,       1.22580,   488.360E-06,   7.70799E+03
C:/ALETube/PressureUpdate/LargeStep/DeformErode/JobErode.odb,Step-1,Increment     10: Step Time =,    100.0,"TUBE-1",         16075,  -3.50742E-03,  -3.56342E-03,       1.22500,NA,NA,"",   5.48812E-03,   326.654E-12,       1.22580,   488.116E-06,   7.72961E+03
C:/ALETube/PressureUpdate/LargeStep/DeformErode/JobErode.odb,Step-1,Increment     10: Step Time =,    100.0,"TUBE-1",         16298,  -2.92791E-03,  -4.05307E-03,       1.23750,NA,NA,"",   5.48866E-03,  -433.681E-21,       1.23829,   488.660E-06,   7.78611E+03
C:/ALETube/PressureUpdate/LargeStep/DeformErode/JobErode.odb,Step-1,Increment     10: Step Time =,    100.0,"TUBE-1",         16239,  -3.50742E-03,  -3.56342E-03,       1.23750,NA,NA,"",   5.48841E-03,            0.,       1.23829,   488.414E-06,   7.80795E+03
C:/ALETube/PressureUpdate/LargeStep/DeformErode/JobErode.odb,Step-1,Increment     10: Step Time =,    100.0,"TUBE-1",         16462,  -2.92791E-03,  -4.05307E-03,          1.25,NA,NA,"",   5.48896E-03,  -433.681E-21,       1.25078,   488.959E-06,   7.86422E+03
C:/ALETube/PressureUpdate/LargeStep/DeformErode/JobErode.odb,Step-1,Increment     10: Step Time =,    100.0,"TUBE-1",         16403,  -3.50742E-03,  -3.56342E-03,          1.25,NA,NA,"",   5.48871E-03,            0.,       1.25078,   488.713E-06,   7.88627E+03
C:/ALETube/PressureUpdate/LargeStep/DeformErode/JobErode.odb,Step-1,Increment     10: Step Time =,    100.0,"TUBE-1",         16567,  -3.50742E-03,  -3.56342E-03,       1.26250,NA,NA,"",   5.48901E-03,            0.,       1.26327,   489.011E-06,   7.96458E+03
C:/ALETube/PressureUpdate/LargeStep/DeformErode/JobErode.odb,Step-1,Increment     10: Step Time =,    100.0,"TUBE-1",         16626,  -2.92791E-03,  -4.05307E-03,       1.26250,NA,NA,"",   5.48926E-03,   433.681E-21,       1.26327,   489.259E-06,   7.94231E+03
C:/ALETube/PressureUpdate/LargeStep/DeformErode/JobErode.odb,Step-1,Increment     10: Step Time =,    100.0,"TUBE-1",         16790,  -2.92791E-03,  -4.05307E-03,       1.27500,NA,NA,"",   5.48956E-03,  -433.681E-21,       1.27576,   489.559E-06,   8.02039E+03
C:/ALETube/PressureUpdate/LargeStep/DeformErode/JobErode.odb,Step-1,Increment     10: Step Time =,    100.0,"TUBE-1",         16731,  -3.50742E-03,  -3.56342E-03,       1.27500,NA,NA,"",   5.48931E-03,   433.681E-21,       1.27576,   489.309E-06,   8.04287E+03
C:/ALETube/PressureUpdate/LargeStep/DeformErode/JobErode.odb,Step-1,Increment     10: Step Time =,    100.0,"TUBE-1",         16954,  -2.92791E-03,  -4.05307E-03,       1.28750,NA,NA,"",   5.48986E-03,   433.681E-21,       1.28825,   489.859E-06,   8.09846E+03
C:/ALETube/PressureUpdate/LargeStep/DeformErode/JobErode.odb,Step-1,Increment     10: Step Time =,    100.0,"TUBE-1",         16895,  -3.50742E-03,  -3.56342E-03,       1.28750,NA,NA,"",   5.48961E-03,            0.,       1.28825,   489.608E-06,   8.12115E+03
C:/ALETube/PressureUpdate/LargeStep/DeformErode/JobErode.odb,Step-1,Increment     10: Step Time =,    100.0,"TUBE-1",         17118,  -2.92791E-03,  -4.05307E-03,       1.30000,NA,NA,"",   5.49016E-03,            0.,       1.30074,   490.159E-06,   8.17651E+03
C:/ALETube/PressureUpdate/LargeStep/DeformErode/JobErode.odb,Step-1,Increment     10: Step Time =,    100.0,"TUBE-1",         17059,  -3.50742E-03,  -3.56342E-03,       1.30000,NA,NA,"",   5.48991E-03,            0.,       1.30074,   489.906E-06,   8.19941E+03
C:/ALETube/PressureUpdate/LargeStep/DeformErode/JobErode.odb,Step-1,Increment     10: Step Time =,    100.0,"TUBE-1",         17282,  -2.92791E-03,  -4.05307E-03,        1.3125,NA,NA,"",   5.49046E-03,   433.681E-21,       1.31323,   490.458E-06,   8.25455E+03
C:/ALETube/PressureUpdate/LargeStep/DeformErode/JobErode.odb,Step-1,Increment     10: Step Time =,    100.0,"TUBE-1",         17223,  -3.50742E-03,  -3.56342E-03,        1.3125,NA,NA,"",   5.49020E-03,            0.,       1.31323,   490.205E-06,   8.27766E+03
C:/ALETube/PressureUpdate/LargeStep/DeformErode/JobErode.odb,Step-1,Increment     10: Step Time =,    100.0,"TUBE-1",         17387,  -3.50742E-03,  -3.56342E-03,       1.32500,NA,NA,"",   5.49050E-03,  -433.681E-21,       1.32572,   490.503E-06,   8.35590E+03
C:/ALETube/PressureUpdate/LargeStep/DeformErode/JobErode.odb,Step-1,Increment     10: Step Time =,    100.0,"TUBE-1",         17446,  -2.92791E-03,  -4.05307E-03,       1.32500,NA,NA,"",   5.49076E-03,            0.,       1.32572,   490.758E-06,   8.33257E+03
C:/ALETube/PressureUpdate/LargeStep/DeformErode/JobErode.odb,Step-1,Increment     10: Step Time =,    100.0,"TUBE-1",         17610,  -2.92791E-03,  -4.05307E-03,       1.33750,NA,NA,"",   5.49106E-03,            0.,       1.33821,   491.058E-06,   8.41057E+03
C:/ALETube/PressureUpdate/LargeStep/DeformErode/JobErode.odb,Step-1,Increment     10: Step Time =,    100.0,"TUBE-1",         17551,  -3.50742E-03,  -3.56342E-03,       1.33750,NA,NA,"",   5.49080E-03,   433.681E-21,       1.33821,   490.801E-06,   8.43412E+03
C:/ALETube/PressureUpdate/LargeStep/DeformErode/JobErode.odb,Step-1,Increment     10: Step Time =,    100.0,"TUBE-1",         17774,  -2.92791E-03,  -4.05307E-03,       1.35000,NA,NA,"",   5.49136E-03,   433.681E-21,       1.35070,   491.357E-06,   8.48857E+03
C:/ALETube/PressureUpdate/LargeStep/DeformErode/JobErode.odb,Step-1,Increment     10: Step Time =,    100.0,"TUBE-1",         17715,  -3.50742E-03,  -3.56342E-03,       1.35000,NA,NA,"",   5.49110E-03,  -326.654E-12,       1.35070,   491.100E-06,   8.51233E+03
C:/ALETube/PressureUpdate/LargeStep/DeformErode/JobErode.odb,Step-1,Increment     10: Step Time =,    100.0,"TUBE-1",         17938,  -2.92791E-03,  -4.05307E-03,       1.36250,NA,NA,"",   5.49166E-03,  -433.681E-21,       1.36319,   491.657E-06,   8.56655E+03
C:/ALETube/PressureUpdate/LargeStep/DeformErode/JobErode.odb,Step-1,Increment     10: Step Time =,    100.0,"TUBE-1",         17879,  -3.50742E-03,  -3.56342E-03,       1.36250,NA,NA,"",   5.49140E-03,   165.935E-12,       1.36319,   491.398E-06,   8.59052E+03
C:/ALETube/PressureUpdate/LargeStep/DeformErode/JobErode.odb,Step-1,Increment     10: Step Time =,    100.0,"TUBE-1",         18102,  -2.92791E-03,  -4.05307E-03,         1.375,NA,NA,"",   5.49196E-03,            0.,       1.37568,   491.957E-06,   8.64451E+03
C:/ALETube/PressureUpdate/LargeStep/DeformErode/JobErode.odb,Step-1,Increment     10: Step Time =,    100.0,"TUBE-1",         18043,  -3.50742E-03,  -3.56342E-03,         1.375,NA,NA,"",   5.49170E-03,            0.,       1.37568,   491.696E-06,   8.66870E+03
C:/ALETube/PressureUpdate/LargeStep/DeformErode/JobErode.odb,Step-1,Increment     10: Step Time =,    100.0,"TUBE-1",         18207,  -3.50742E-03,  -3.56342E-03,       1.38750,NA,NA,"",   5.49199E-03,            0.,       1.38817,   491.994E-06,   8.74686E+03
C:/ALETube/PressureUpdate/LargeStep/DeformErode/JobErode.odb,Step-1,Increment     10: Step Time =,    100.0,"TUBE-1",         18266,  -2.92791E-03,  -4.05307E-03,       1.38750,NA,NA,"",   5.49226E-03,            0.,       1.38817,   492.256E-06,   8.72246E+03
C:/ALETube/PressureUpdate/LargeStep/DeformErode/JobErode.odb,Step-1,Increment     10: Step Time =,    100.0,"TUBE-1",         18430,  -2.92791E-03,  -4.05307E-03,       1.40000,NA,NA,"",   5.49256E-03,            0.,       1.40066,   492.556E-06,   8.80040E+03
C:/ALETube/PressureUpdate/LargeStep/DeformErode/JobErode.odb,Step-1,Increment     10: Step Time =,    100.0,"TUBE-1",         18371,  -3.50742E-03,  -3.56342E-03,       1.40000,NA,NA,"",   5.49229E-03,            0.,       1.40066,   492.293E-06,   8.82501E+03
C:/ALETube/PressureUpdate/LargeStep/DeformErode/JobErode.odb,Step-1,Increment     10: Step Time =,    100.0,"TUBE-1",         18594,  -2.92791E-03,  -4.05307E-03,       1.41250,NA,NA,"",   5.49286E-03,            0.,       1.41314,   492.855E-06,   8.87832E+03
C:/ALETube/PressureUpdate/LargeStep/DeformErode/JobErode.odb,Step-1,Increment     10: Step Time =,    100.0,"TUBE-1",         18535,  -3.50742E-03,  -3.56342E-03,       1.41250,NA,NA,"",   5.49259E-03,            0.,       1.41314,   492.591E-06,   8.90314E+03
C:/ALETube/PressureUpdate/LargeStep/DeformErode/JobErode.odb,Step-1,Increment     10: Step Time =,    100.0,"TUBE-1",         18758,  -2.92791E-03,  -4.05307E-03,       1.42500,NA,NA,"",   5.49315E-03,  -433.681E-21,       1.42563,   493.155E-06,   8.95623E+03
C:/ALETube/PressureUpdate/LargeStep/DeformErode/JobErode.odb,Step-1,Increment     10: Step Time =,    100.0,"TUBE-1",         18699,  -3.50742E-03,  -3.56342E-03,       1.42500,NA,NA,"",   5.49289E-03,            0.,       1.42563,   492.889E-06,   8.98126E+03
C:/ALETube/PressureUpdate/LargeStep/DeformErode/JobErode.odb,Step-1,Increment     10: Step Time =,    100.0,"TUBE-1",         18922,  -2.92791E-03,  -4.05307E-03,        1.4375,NA,NA,"",   5.49345E-03,  -433.681E-21,       1.43812,   493.455E-06,   9.03413E+03
C:/ALETube/PressureUpdate/LargeStep/DeformErode/JobErode.odb,Step-1,Increment     10: Step Time =,    100.0,"TUBE-1",         18863,  -3.50742E-03,  -3.56342E-03,        1.4375,NA,NA,"",   5.49319E-03,            0.,       1.43812,   493.187E-06,   9.05937E+03
C:/ALETube/PressureUpdate/LargeStep/DeformErode/JobErode.odb,Step-1,Increment     10: Step Time =,    100.0,"TUBE-1",         19027,  -3.50742E-03,  -3.56342E-03,       1.45000,NA,NA,"",   5.49349E-03,            0.,       1.45061,   493.486E-06,   9.13746E+03
C:/ALETube/PressureUpdate/LargeStep/DeformErode/JobErode.odb,Step-1,Increment     10: Step Time =,    100.0,"TUBE-1",         19086,  -2.92791E-03,  -4.05307E-03,       1.45000,NA,NA,"",   5.49375E-03,            0.,       1.45061,   493.754E-06,   9.11201E+03
C:/ALETube/PressureUpdate/LargeStep/DeformErode/JobErode.odb,Step-1,Increment     10: Step Time =,    100.0,"TUBE-1",         19250,  -2.92791E-03,  -4.05307E-03,       1.46250,NA,NA,"",   5.49405E-03,            0.,       1.46310,   494.054E-06,   9.18987E+03
C:/ALETube/PressureUpdate/LargeStep/DeformErode/JobErode.odb,Step-1,Increment     10: Step Time =,    100.0,"TUBE-1",         19191,  -3.50742E-03,  -3.56342E-03,       1.46250,NA,NA,"",   5.49378E-03,  -326.654E-12,       1.46310,   493.784E-06,   9.21554E+03
C:/ALETube/PressureUpdate/LargeStep/DeformErode/JobErode.odb,Step-1,Increment     10: Step Time =,    100.0,"TUBE-1",         19414,  -2.92791E-03,  -4.05307E-03,       1.47500,NA,NA,"",   5.49435E-03,  -433.681E-21,       1.47559,   494.353E-06,   9.26772E+03
C:/ALETube/PressureUpdate/LargeStep/DeformErode/JobErode.odb,Step-1,Increment     10: Step Time =,    100.0,"TUBE-1",         19355,  -3.50742E-03,  -3.56342E-03,       1.47500,NA,NA,"",   5.49408E-03,            0.,       1.47559,   494.082E-06,   9.29361E+03
C:/ALETube/PressureUpdate/LargeStep/DeformErode/JobErode.odb,Step-1,Increment     10: Step Time =,    100.0,"TUBE-1",         19578,  -2.92791E-03,  -4.05307E-03,       1.48750,NA,NA,"",   5.49465E-03,            0.,       1.48807,   494.653E-06,   9.34556E+03
C:/ALETube/PressureUpdate/LargeStep/DeformErode/JobErode.odb,Step-1,Increment     10: Step Time =,    100.0,"TUBE-1",         19519,  -3.50742E-03,  -3.56342E-03,       1.48750,NA,NA,"",   5.49438E-03,            0.,       1.48807,   494.380E-06,   9.37166E+03
C:/ALETube/PressureUpdate/LargeStep/DeformErode/JobErode.odb,Step-1,Increment     10: Step Time =,    100.0,"TUBE-1",         19742,  -2.92791E-03,  -4.05307E-03,           1.5,NA,NA,"",   5.49495E-03,            0.,       1.50056,   494.952E-06,   9.42339E+03
C:/ALETube/PressureUpdate/LargeStep/DeformErode/JobErode.odb,Step-1,Increment     10: Step Time =,    100.0,"TUBE-1",         19683,  -3.50742E-03,  -3.56342E-03,           1.5,NA,NA,"",   5.49468E-03,            0.,       1.50056,   494.678E-06,   9.44969E+03
C:/ALETube/PressureUpdate/LargeStep/DeformErode/JobErode.odb,Step-1,Increment     10: Step Time =,    100.0,"TUBE-1",         19847,  -3.50742E-03,  -3.56342E-03,       1.51250,NA,NA,"",   5.49498E-03,   433.681E-21,       1.51305,   494.976E-06,   9.52771E+03
C:/ALETube/PressureUpdate/LargeStep/DeformErode/JobErode.odb,Step-1,Increment     10: Step Time =,    100.0,"TUBE-1",         19906,  -2.92791E-03,  -4.05307E-03,       1.51250,NA,NA,"",   5.49525E-03,  -433.681E-21,       1.51305,   495.251E-06,   9.50120E+03
C:/ALETube/PressureUpdate/LargeStep/DeformErode/JobErode.odb,Step-1,Increment     10: Step Time =,    100.0,"TUBE-1",         20070,  -2.92791E-03,  -4.05307E-03,       1.52500,NA,NA,"",   5.49555E-03,  -433.681E-21,       1.52554,   495.551E-06,   9.57899E+03
C:/ALETube/PressureUpdate/LargeStep/DeformErode/JobErode.odb,Step-1,Increment     10: Step Time =,    100.0,"TUBE-1",         20011,  -3.50742E-03,  -3.56342E-03,       1.52500,NA,NA,"",   5.49527E-03,            0.,       1.52554,   495.274E-06,   9.60572E+03
C:/ALETube/PressureUpdate/LargeStep/DeformErode/JobErode.odb,Step-1,Increment     10: Step Time =,    100.0,"TUBE-1",         20234,  -2.92791E-03,  -4.05307E-03,       1.53750,NA,NA,"",   5.49585E-03,            0.,       1.53803,   495.850E-06,   9.65677E+03
C:/ALETube/PressureUpdate/LargeStep/DeformErode/JobErode.odb,Step-1,Increment     10: Step Time =,    100.0,"TUBE-1",         20175,  -3.50742E-03,  -3.56342E-03,       1.53750,NA,NA,"",   5.49557E-03,            0.,       1.53803,   495.572E-06,   9.68371E+03
C:/ALETube/PressureUpdate/LargeStep/DeformErode/JobErode.odb,Step-1,Increment     10: Step Time =,    100.0,"TUBE-1",         20398,  -2.92791E-03,  -4.05307E-03,       1.55000,NA,NA,"",   5.49615E-03,            0.,       1.55051,   496.150E-06,   9.73454E+03
C:/ALETube/PressureUpdate/LargeStep/DeformErode/JobErode.odb,Step-1,Increment     10: Step Time =,    100.0,"TUBE-1",         20339,  -3.50742E-03,  -3.56342E-03,       1.55000,NA,NA,"",   5.49587E-03,            0.,       1.55051,   495.870E-06,   9.76169E+03
C:/ALETube/PressureUpdate/LargeStep/DeformErode/JobErode.odb,Step-1,Increment     10: Step Time =,    100.0,"TUBE-1",         20562,  -2.92791E-03,  -4.05307E-03,        1.5625,NA,NA,"",   5.49645E-03,            0.,       1.56300,   496.449E-06,   9.81230E+03
C:/ALETube/PressureUpdate/LargeStep/DeformErode/JobErode.odb,Step-1,Increment     10: Step Time =,    100.0,"TUBE-1",         20503,  -3.50742E-03,  -3.56342E-03,        1.5625,NA,NA,"",   5.49617E-03,            0.,       1.56300,   496.168E-06,   9.83966E+03
C:/ALETube/PressureUpdate/LargeStep/DeformErode/JobErode.odb,Step-1,Increment     10: Step Time =,    100.0,"TUBE-1",         20667,  -3.50742E-03,  -3.56342E-03,       1.57500,NA,NA,"",   5.49647E-03,  -433.681E-21,       1.57549,   496.466E-06,   9.91761E+03
C:/ALETube/PressureUpdate/LargeStep/DeformErode/JobErode.odb,Step-1,Increment     10: Step Time =,    100.0,"TUBE-1",         20726,  -2.92791E-03,  -4.05307E-03,       1.57500,NA,NA,"",   5.49675E-03,   433.681E-21,       1.57549,   496.748E-06,   9.89003E+03
C:/ALETube/PressureUpdate/LargeStep/DeformErode/JobErode.odb,Step-1,Increment     10: Step Time =,    100.0,"TUBE-1",         20890,  -2.92791E-03,  -4.05307E-03,       1.58750,NA,NA,"",   5.49705E-03,            0.,       1.58797,   497.048E-06,   9.96776E+03
C:/ALETube/PressureUpdate/LargeStep/DeformErode/JobErode.odb,Step-1,Increment     10: Step Time =,    100.0,"TUBE-1",         20831,  -3.50742E-03,  -3.56342E-03,       1.58750,NA,NA,"",   5.49676E-03,  -433.681E-21,       1.58797,   496.764E-06,   9.99554E+03
C:/ALETube/PressureUpdate/LargeStep/DeformErode/JobErode.odb,Step-1,Increment     10: Step Time =,    100.0,"TUBE-1",         21054,  -2.92791E-03,  -4.05307E-03,       1.60000,NA,NA,"",   5.49735E-03,            0.,       1.60046,   497.347E-06,   10.0455E+03
C:/ALETube/PressureUpdate/LargeStep/DeformErode/JobErode.odb,Step-1,Increment     10: Step Time =,    100.0,"TUBE-1",         20995,  -3.50742E-03,  -3.56342E-03,       1.60000,NA,NA,"",   5.49706E-03,            0.,       1.60046,   497.062E-06,   10.0735E+03
C:/ALETube/PressureUpdate/LargeStep/DeformErode/JobErode.odb,Step-1,Increment     10: Step Time =,    100.0,"TUBE-1",         21218,  -2.92791E-03,  -4.05307E-03,       1.61250,NA,NA,"",   5.49765E-03,  -433.681E-21,       1.61295,   497.646E-06,   10.1232E+03
C:/ALETube/PressureUpdate/LargeStep/DeformErode/JobErode.odb,Step-1,Increment     10: Step Time =,    100.0,"TUBE-1",         21159,  -3.50742E-03,  -3.56342E-03,       1.61250,NA,NA,"",   5.49736E-03,  -326.654E-12,       1.61295,   497.360E-06,   10.1514E+03
C:/ALETube/PressureUpdate/LargeStep/DeformErode/JobErode.odb,Step-1,Increment     10: Step Time =,    100.0,"TUBE-1",         21382,  -2.92791E-03,  -4.05307E-03,         1.625,NA,NA,"",   5.49795E-03,            0.,       1.62544,   497.946E-06,   10.2009E+03
C:/ALETube/PressureUpdate/LargeStep/DeformErode/JobErode.odb,Step-1,Increment     10: Step Time =,    100.0,"TUBE-1",         21323,  -3.50742E-03,  -3.56342E-03,         1.625,NA,NA,"",   5.49766E-03,            0.,       1.62544,   497.658E-06,   10.2293E+03
C:/ALETube/PressureUpdate/LargeStep/DeformErode/JobErode.odb,Step-1,Increment     10: Step Time =,    100.0,"TUBE-1",         21487,  -3.50742E-03,  -3.56342E-03,       1.63750,NA,NA,"",   5.49796E-03,  -326.654E-12,       1.63792,   497.956E-06,   10.3071E+03
C:/ALETube/PressureUpdate/LargeStep/DeformErode/JobErode.odb,Step-1,Increment     10: Step Time =,    100.0,"TUBE-1",         21546,  -2.92791E-03,  -4.05307E-03,       1.63750,NA,NA,"",   5.49824E-03,            0.,       1.63792,   498.245E-06,   10.2785E+03
C:/ALETube/PressureUpdate/LargeStep/DeformErode/JobErode.odb,Step-1,Increment     10: Step Time =,    100.0,"TUBE-1",         21710,  -2.92791E-03,  -4.05307E-03,       1.65000,NA,NA,"",   5.49854E-03,            0.,       1.65041,   498.544E-06,   10.3562E+03
C:/ALETube/PressureUpdate/LargeStep/DeformErode/JobErode.odb,Step-1,Increment     10: Step Time =,    100.0,"TUBE-1",         21651,  -3.50742E-03,  -3.56342E-03,       1.65000,NA,NA,"",   5.49825E-03,            0.,       1.65041,   498.254E-06,   10.3850E+03
C:/ALETube/PressureUpdate/LargeStep/DeformErode/JobErode.odb,Step-1,Increment     10: Step Time =,    100.0,"TUBE-1",         21874,  -2.92791E-03,  -4.05307E-03,       1.66250,NA,NA,"",   5.49884E-03,  -433.681E-21,       1.66290,   498.844E-06,   10.4338E+03
C:/ALETube/PressureUpdate/LargeStep/DeformErode/JobErode.odb,Step-1,Increment     10: Step Time =,    100.0,"TUBE-1",         21815,  -3.50742E-03,  -3.56342E-03,       1.66250,NA,NA,"",   5.49855E-03,   165.935E-12,       1.66290,   498.553E-06,   10.4628E+03
C:/ALETube/PressureUpdate/LargeStep/DeformErode/JobErode.odb,Step-1,Increment     10: Step Time =,    100.0,"TUBE-1",         22038,  -2.92791E-03,  -4.05307E-03,       1.67500,NA,NA,"",   5.49915E-03,  -433.681E-21,       1.67538,   499.146E-06,   10.5111E+03
C:/ALETube/PressureUpdate/LargeStep/DeformErode/JobErode.odb,Step-1,Increment     10: Step Time =,    100.0,"TUBE-1",         21979,  -3.50742E-03,  -3.56342E-03,       1.67500,NA,NA,"",   5.49885E-03,            0.,       1.67538,   498.854E-06,   10.5404E+03
C:/ALETube/PressureUpdate/LargeStep/DeformErode/JobErode.odb,Step-1,Increment     10: Step Time =,    100.0,"TUBE-1",         22202,  -2.92791E-03,  -4.05307E-03,        1.6875,NA,NA,"",   5.49944E-03,            0.,       1.68787,   499.445E-06,   10.5888E+03
C:/ALETube/PressureUpdate/LargeStep/DeformErode/JobErode.odb,Step-1,Increment     10: Step Time =,    100.0,"TUBE-1",         22143,  -3.50742E-03,  -3.56342E-03,        1.6875,NA,NA,"",   5.49915E-03,            0.,       1.68787,   499.151E-06,   10.6182E+03
C:/ALETube/PressureUpdate/LargeStep/DeformErode/JobErode.odb,Step-1,Increment     10: Step Time =,    100.0,"TUBE-1",         22307,  -3.50742E-03,  -3.56342E-03,       1.70000,NA,NA,"",   5.49945E-03,   433.681E-21,       1.70036,   499.449E-06,   10.6960E+03
C:/ALETube/PressureUpdate/LargeStep/DeformErode/JobErode.odb,Step-1,Increment     10: Step Time =,    100.0,"TUBE-1",         22366,  -2.92791E-03,  -4.05307E-03,       1.70000,NA,NA,"",   5.49974E-03,            0.,       1.70036,   499.744E-06,   10.6664E+03
C:/ALETube/PressureUpdate/LargeStep/DeformErode/JobErode.odb,Step-1,Increment     10: Step Time =,    100.0,"TUBE-1",         22530,  -2.92791E-03,  -4.05307E-03,       1.71250,NA,NA,"",   5.50004E-03,   433.681E-21,       1.71284,   500.043E-06,   10.7440E+03
C:/ALETube/PressureUpdate/LargeStep/DeformErode/JobErode.odb,Step-1,Increment     10: Step Time =,    100.0,"TUBE-1",         22471,  -3.50742E-03,  -3.56342E-03,       1.71250,NA,NA,"",   5.49975E-03,            0.,       1.71284,   499.747E-06,   10.7738E+03
C:/ALETube/PressureUpdate/LargeStep/DeformErode/JobErode.odb,Step-1,Increment     10: Step Time =,    100.0,"TUBE-1",         22694,  -2.92791E-03,  -4.05307E-03,       1.72500,NA,NA,"",   5.50034E-03,  -433.681E-21,       1.72533,   500.343E-06,   10.8215E+03
C:/ALETube/PressureUpdate/LargeStep/DeformErode/JobErode.odb,Step-1,Increment     10: Step Time =,    100.0,"TUBE-1",         22635,  -3.50742E-03,  -3.56342E-03,       1.72500,NA,NA,"",   5.50004E-03,            0.,       1.72533,   500.045E-06,   10.8516E+03
C:/ALETube/PressureUpdate/LargeStep/DeformErode/JobErode.odb,Step-1,Increment     10: Step Time =,    100.0,"TUBE-1",         22858,  -2.92791E-03,  -4.05307E-03,       1.73750,NA,NA,"",   5.50064E-03,            0.,       1.73781,   500.645E-06,   10.8988E+03
C:/ALETube/PressureUpdate/LargeStep/DeformErode/JobErode.odb,Step-1,Increment     10: Step Time =,    100.0,"TUBE-1",         22799,  -3.50742E-03,  -3.56342E-03,       1.73750,NA,NA,"",   5.50035E-03,  -433.681E-21,       1.73781,   500.345E-06,   10.9291E+03
C:/ALETube/PressureUpdate/LargeStep/DeformErode/JobErode.odb,Step-1,Increment     10: Step Time =,    100.0,"TUBE-1",         23022,  -2.92791E-03,  -4.05307E-03,          1.75,NA,NA,"",   5.50094E-03,            0.,       1.75030,   500.943E-06,   10.9764E+03
C:/ALETube/PressureUpdate/LargeStep/DeformErode/JobErode.odb,Step-1,Increment     10: Step Time =,    100.0,"TUBE-1",         22963,  -3.50742E-03,  -3.56342E-03,          1.75,NA,NA,"",   5.50064E-03,  -326.654E-12,       1.75030,   500.643E-06,   11.0069E+03
C:/ALETube/PressureUpdate/LargeStep/DeformErode/JobErode.odb,Step-1,Increment     10: Step Time =,    100.0,"TUBE-1",         23127,  -3.50742E-03,  -3.56342E-03,       1.76250,NA,NA,"",   5.50094E-03,            0.,       1.76279,   500.941E-06,   11.0846E+03
C:/ALETube/PressureUpdate/LargeStep/DeformErode/JobErode.odb,Step-1,Increment     10: Step Time =,    100.0,"TUBE-1",         23186,  -2.92791E-03,  -4.05307E-03,       1.76250,NA,NA,"",   5.50124E-03,            0.,       1.76279,   501.243E-06,   11.0539E+03
C:/ALETube/PressureUpdate/LargeStep/DeformErode/JobErode.odb,Step-1,Increment     10: Step Time =,    100.0,"TUBE-1",         23350,  -2.92791E-03,  -4.05307E-03,       1.77500,NA,NA,"",   5.50154E-03,  -433.681E-21,       1.77527,   501.543E-06,   11.1313E+03
C:/ALETube/PressureUpdate/LargeStep/DeformErode/JobErode.odb,Step-1,Increment     10: Step Time =,    100.0,"TUBE-1",         23291,  -3.50742E-03,  -3.56342E-03,       1.77500,NA,NA,"",   5.50124E-03,            0.,       1.77527,   501.240E-06,   11.1621E+03
C:/ALETube/PressureUpdate/LargeStep/DeformErode/JobErode.odb,Step-1,Increment     10: Step Time =,    100.0,"TUBE-1",         23514,  -2.92791E-03,  -4.05307E-03,       1.78750,NA,NA,"",   5.50184E-03,            0.,       1.78776,   501.843E-06,   11.2087E+03
C:/ALETube/PressureUpdate/LargeStep/DeformErode/JobErode.odb,Step-1,Increment     10: Step Time =,    100.0,"TUBE-1",         23455,  -3.50742E-03,  -3.56342E-03,       1.78750,NA,NA,"",   5.50154E-03,            0.,       1.78776,   501.538E-06,   11.2398E+03
C:/ALETube/PressureUpdate/LargeStep/DeformErode/JobErode.odb,Step-1,Increment     10: Step Time =,    100.0,"TUBE-1",         23678,  -2.92791E-03,  -4.05307E-03,       1.80000,NA,NA,"",   5.50214E-03,            0.,       1.80024,   502.142E-06,   11.2861E+03
C:/ALETube/PressureUpdate/LargeStep/DeformErode/JobErode.odb,Step-1,Increment     10: Step Time =,    100.0,"TUBE-1",         23619,  -3.50742E-03,  -3.56342E-03,       1.80000,NA,NA,"",   5.50184E-03,            0.,       1.80024,   501.837E-06,   11.3175E+03
C:/ALETube/PressureUpdate/LargeStep/DeformErode/JobErode.odb,Step-1,Increment     10: Step Time =,    100.0,"TUBE-1",         23842,  -2.92791E-03,  -4.05307E-03,        1.8125,NA,NA,"",   5.50244E-03,   188.736E-12,       1.81273,   502.442E-06,   11.3636E+03
C:/ALETube/PressureUpdate/LargeStep/DeformErode/JobErode.odb,Step-1,Increment     10: Step Time =,    100.0,"TUBE-1",         23783,  -3.50742E-03,  -3.56342E-03,        1.8125,NA,NA,"",   5.50213E-03,   165.935E-12,       1.81273,   502.135E-06,   11.3951E+03
C:/ALETube/PressureUpdate/LargeStep/DeformErode/JobErode.odb,Step-1,Increment     10: Step Time =,    100.0,"TUBE-1",         23947,  -3.50742E-03,  -3.56342E-03,       1.82500,NA,NA,"",   5.50243E-03,   433.681E-21,       1.82521,   502.432E-06,   11.4728E+03
C:/ALETube/PressureUpdate/LargeStep/DeformErode/JobErode.odb,Step-1,Increment     10: Step Time =,    100.0,"TUBE-1",         24006,  -2.92791E-03,  -4.05307E-03,       1.82500,NA,NA,"",   5.50274E-03,   433.681E-21,       1.82521,   502.741E-06,   11.4411E+03
C:/ALETube/PressureUpdate/LargeStep/DeformErode/JobErode.odb,Step-1,Increment     10: Step Time =,    100.0,"TUBE-1",         24170,  -2.92791E-03,  -4.05307E-03,       1.83750,NA,NA,"",   5.50304E-03,            0.,       1.83770,   503.040E-06,   11.5185E+03
C:/ALETube/PressureUpdate/LargeStep/DeformErode/JobErode.odb,Step-1,Increment     10: Step Time =,    100.0,"TUBE-1",         24111,  -3.50742E-03,  -3.56342E-03,       1.83750,NA,NA,"",   5.50273E-03,   433.681E-21,       1.83770,   502.730E-06,   11.5504E+03
C:/ALETube/PressureUpdate/LargeStep/DeformErode/JobErode.odb,Step-1,Increment     10: Step Time =,    100.0,"TUBE-1",         24334,  -2.92791E-03,  -4.05307E-03,       1.85000,NA,NA,"",   5.50334E-03,  -433.681E-21,       1.85019,   503.338E-06,   11.5959E+03
C:/ALETube/PressureUpdate/LargeStep/DeformErode/JobErode.odb,Step-1,Increment     10: Step Time =,    100.0,"TUBE-1",         24275,  -3.50742E-03,  -3.56342E-03,       1.85000,NA,NA,"",   5.50303E-03,   433.681E-21,       1.85019,   503.027E-06,   11.6281E+03
C:/ALETube/PressureUpdate/LargeStep/DeformErode/JobErode.odb,Step-1,Increment     10: Step Time =,    100.0,"TUBE-1",         24498,  -2.92791E-03,  -4.05307E-03,       1.86250,NA,NA,"",   5.50364E-03,            0.,       1.86267,   503.637E-06,   11.6734E+03
C:/ALETube/PressureUpdate/LargeStep/DeformErode/JobErode.odb,Step-1,Increment     10: Step Time =,    100.0,"TUBE-1",         24439,  -3.50742E-03,  -3.56342E-03,       1.86250,NA,NA,"",   5.50332E-03,            0.,       1.86267,   503.325E-06,   11.7057E+03
C:/ALETube/PressureUpdate/LargeStep/DeformErode/JobErode.odb,Step-1,Increment     10: Step Time =,    100.0,"TUBE-1",         24662,  -2.92791E-03,  -4.05307E-03,         1.875,NA,NA,"",   5.50394E-03,            0.,       1.87516,   503.936E-06,   11.7508E+03
C:/ALETube/PressureUpdate/LargeStep/DeformErode/JobErode.odb,Step-1,Increment     10: Step Time =,    100.0,"TUBE-1",         24603,  -3.50742E-03,  -3.56342E-03,         1.875,NA,NA,"",   5.50362E-03,   433.681E-21,       1.87516,   503.623E-06,   11.7833E+03
C:/ALETube/PressureUpdate/LargeStep/DeformErode/JobErode.odb,Step-1,Increment     10: Step Time =,    100.0,"TUBE-1",         24767,  -3.50742E-03,  -3.56342E-03,       1.88750,NA,NA,"",   5.50392E-03,   433.681E-21,       1.88764,   503.920E-06,   11.8609E+03
C:/ALETube/PressureUpdate/LargeStep/DeformErode/JobErode.odb,Step-1,Increment     10: Step Time =,    100.0,"TUBE-1",         24826,  -2.92791E-03,  -4.05307E-03,       1.88750,NA,NA,"",   5.50424E-03,            0.,       1.88764,   504.235E-06,   11.8281E+03
C:/ALETube/PressureUpdate/LargeStep/DeformErode/JobErode.odb,Step-1,Increment     10: Step Time =,    100.0,"TUBE-1",         24990,  -2.92791E-03,  -4.05307E-03,       1.90000,NA,NA,"",   5.50453E-03,            0.,       1.90012,   504.534E-06,   11.9055E+03
C:/ALETube/PressureUpdate/LargeStep/DeformErode/JobErode.odb,Step-1,Increment     10: Step Time =,    100.0,"TUBE-1",         24931,  -3.50742E-03,  -3.56342E-03,       1.90000,NA,NA,"",   5.50422E-03,  -433.681E-21,       1.90012,   504.218E-06,   11.9385E+03
C:/ALETube/PressureUpdate/LargeStep/DeformErode/JobErode.odb,Step-1,Increment     10: Step Time =,    100.0,"TUBE-1",         25154,  -2.92791E-03,  -4.05307E-03,       1.91250,NA,NA,"",   5.50483E-03,            0.,       1.91261,   504.833E-06,   11.9828E+03
C:/ALETube/PressureUpdate/LargeStep/DeformErode/JobErode.odb,Step-1,Increment     10: Step Time =,    100.0,"TUBE-1",         25095,  -3.50742E-03,  -3.56342E-03,       1.91250,NA,NA,"",   5.50452E-03,            0.,       1.91261,   504.515E-06,   12.0160E+03
C:/ALETube/PressureUpdate/LargeStep/DeformErode/JobErode.odb,Step-1,Increment     10: Step Time =,    100.0,"TUBE-1",         25318,  -2.92791E-03,  -4.05307E-03,       1.92500,NA,NA,"",   5.50513E-03,            0.,       1.92509,   505.132E-06,   12.0603E+03
C:/ALETube/PressureUpdate/LargeStep/DeformErode/JobErode.odb,Step-1,Increment     10: Step Time =,    100.0,"TUBE-1",         25259,  -3.50742E-03,  -3.56342E-03,       1.92500,NA,NA,"",   5.50481E-03,  -433.681E-21,       1.92509,   504.813E-06,   12.0937E+03
C:/ALETube/PressureUpdate/LargeStep/DeformErode/JobErode.odb,Step-1,Increment     10: Step Time =,    100.0,"TUBE-1",         25482,  -2.92791E-03,  -4.05307E-03,        1.9375,NA,NA,"",   5.50543E-03,            0.,       1.93758,   505.431E-06,   12.1375E+03
C:/ALETube/PressureUpdate/LargeStep/DeformErode/JobErode.odb,Step-1,Increment     10: Step Time =,    100.0,"TUBE-1",         25423,  -3.50742E-03,  -3.56342E-03,        1.9375,NA,NA,"",   5.50511E-03,  -433.681E-21,       1.93758,   505.111E-06,   12.1711E+03
C:/ALETube/PressureUpdate/LargeStep/DeformErode/JobErode.odb,Step-1,Increment     10: Step Time =,    100.0,"TUBE-1",         25587,  -3.50742E-03,  -3.56342E-03,       1.95000,NA,NA,"",   5.50541E-03,   433.681E-21,       1.95006,   505.406E-06,   12.2487E+03
C:/ALETube/PressureUpdate/LargeStep/DeformErode/JobErode.odb,Step-1,Increment     10: Step Time =,    100.0,"TUBE-1",         25646,  -2.92791E-03,  -4.05307E-03,       1.95000,NA,NA,"",   5.50573E-03,  -272.682E-12,       1.95006,   505.728E-06,   12.2150E+03
C:/ALETube/PressureUpdate/LargeStep/DeformErode/JobErode.odb,Step-1,Increment     10: Step Time =,    100.0,"TUBE-1",         25810,  -2.92791E-03,  -4.05307E-03,       1.96250,NA,NA,"",   5.50603E-03,  -433.681E-21,       1.96255,   506.029E-06,   12.2917E+03
C:/ALETube/PressureUpdate/LargeStep/DeformErode/JobErode.odb,Step-1,Increment     10: Step Time =,    100.0,"TUBE-1",         25751,  -3.50742E-03,  -3.56342E-03,       1.96250,NA,NA,"",   5.50571E-03,            0.,       1.96255,   505.706E-06,   12.3260E+03
C:/ALETube/PressureUpdate/LargeStep/DeformErode/JobErode.odb,Step-1,Increment     10: Step Time =,    100.0,"TUBE-1",         25974,  -2.92791E-03,  -4.05307E-03,       1.97500,NA,NA,"",   5.50634E-03,  -433.681E-21,       1.97503,   506.342E-06,   12.3737E+03
C:/ALETube/PressureUpdate/LargeStep/DeformErode/JobErode.odb,Step-1,Increment     10: Step Time =,    100.0,"TUBE-1",         25915,  -3.50742E-03,  -3.56342E-03,       1.97500,NA,NA,"",   5.50602E-03,            0.,       1.97503,   506.018E-06,   12.4071E+03
C:/ALETube/PressureUpdate/LargeStep/DeformErode/JobErode.odb,Step-1,Increment     10: Step Time =,    100.0,"TUBE-1",         26138,  -2.92791E-03,  -4.05307E-03,       1.98750,NA,NA,"",   5.50657E-03,  -433.681E-21,       1.98752,   506.573E-06,   12.4310E+03
C:/ALETube/PressureUpdate/LargeStep/DeformErode/JobErode.odb,Step-1,Increment     10: Step Time =,    100.0,"TUBE-1",         26079,  -3.50742E-03,  -3.56342E-03,       1.98750,NA,NA,"",   5.50624E-03,  -433.681E-21,       1.98752,   506.244E-06,   12.4670E+03
C:/ALETube/PressureUpdate/LargeStep/DeformErode/JobErode.odb,Step-1,Increment     10: Step Time =,    100.0,"TUBE-1",         26302,  -2.92791E-03,  -4.05307E-03,            2.,NA,NA,"",   5.50589E-03,            0.,            2.,   505.895E-06,   12.3899E+03
C:/ALETube/PressureUpdate/LargeStep/DeformErode/JobErode.odb,Step-1,Increment     10: Step Time =,    100.0,"TUBE-1",         26243,  -3.50742E-03,  -3.56342E-03,            2.,NA,NA,"",   5.50566E-03,   165.935E-12,            2.,   505.659E-06,   12.4375E+03
